con1.16
 0 
Gamma point shift
 7 2 2
 0 0 0 
