                                        
   1.00000000000000     
     0.0000000000000000    2.9055238181210252    0.0000000000000000
     0.2931841036216996    0.0000000000000000   10.2688107814216032
     9.7485435123624491    0.0000000000000000    0.2982738280178046
   Mn   O    Li
     8    16     4
Direct
  0.2500000000000000  0.0019577477325515  0.1374332760174472
  0.2500000000000000  0.5250397656857817  0.1347584242637794
  0.2500000000000000  0.2326069227849079  0.6167596138674203
  0.2500000000000000  0.7245735879146586  0.6283027924667002
  0.7500000000000000  0.4787573991471176  0.8508468301308614
  0.7500000000000000  0.0016027852885644  0.8492996875355557
  0.7500000000000000  0.2758105202550226  0.3477797364023070
  0.7500000000000000  0.7645881574933032  0.3583210547293486
  0.2500000000000000  0.1924201686336055  0.2642676198728222
  0.2500000000000000  0.6764936860938925  0.2796168074576563
  0.2500000000000000  0.0876603391228457  0.7487637393889097
  0.2500000000000000  0.5796554480763927  0.7592140877525267
  0.7500000000000000  0.3274951871358586  0.6927436063396800
  0.7500000000000000  0.8160192308093549  0.7087431219268241
  0.7500000000000000  0.4200055721200356  0.2189146403652167
  0.7500000000000000  0.9082704296451013  0.2265191252018214
  0.2500000000000000  0.3577325007210289  0.4567144107506730
  0.2500000000000000  0.8513980382391124  0.4689042781070515
  0.2500000000000000  0.3959728223016442  0.9499680239494616
  0.2500000000000000  0.9001234791411579  0.9389057843718788
  0.7500000000000000  0.1519254958464056  0.5131174022276486
  0.7500000000000000  0.6463797436498717  0.5253774748328746
  0.7500000000000000  0.1027180296706262  0.0445669476012118
  0.7500000000000000  0.6073952300187098  0.0343108609690235
  0.2500000000000000  0.2407789409063795  0.0534410035510105
  0.7500000000000000  0.7632848427972350  0.9313302472154923
  0.7500000000000000  0.4657639308736122  0.5339056752021125
  0.7500000000000000  0.9655007778952178  0.5376776075026900
 
  0.00000000E+00  0.00000000E+00  0.00000000E+00
  0.00000000E+00  0.00000000E+00  0.00000000E+00
  0.00000000E+00  0.00000000E+00  0.00000000E+00
  0.00000000E+00  0.00000000E+00  0.00000000E+00
  0.00000000E+00  0.00000000E+00  0.00000000E+00
  0.00000000E+00  0.00000000E+00  0.00000000E+00
  0.00000000E+00  0.00000000E+00  0.00000000E+00
  0.00000000E+00  0.00000000E+00  0.00000000E+00
  0.00000000E+00  0.00000000E+00  0.00000000E+00
  0.00000000E+00  0.00000000E+00  0.00000000E+00
  0.00000000E+00  0.00000000E+00  0.00000000E+00
  0.00000000E+00  0.00000000E+00  0.00000000E+00
  0.00000000E+00  0.00000000E+00  0.00000000E+00
  0.00000000E+00  0.00000000E+00  0.00000000E+00
  0.00000000E+00  0.00000000E+00  0.00000000E+00
  0.00000000E+00  0.00000000E+00  0.00000000E+00
  0.00000000E+00  0.00000000E+00  0.00000000E+00
  0.00000000E+00  0.00000000E+00  0.00000000E+00
  0.00000000E+00  0.00000000E+00  0.00000000E+00
  0.00000000E+00  0.00000000E+00  0.00000000E+00
  0.00000000E+00  0.00000000E+00  0.00000000E+00
  0.00000000E+00  0.00000000E+00  0.00000000E+00
  0.00000000E+00  0.00000000E+00  0.00000000E+00
  0.00000000E+00  0.00000000E+00  0.00000000E+00
  0.00000000E+00  0.00000000E+00  0.00000000E+00
  0.00000000E+00  0.00000000E+00  0.00000000E+00
  0.00000000E+00  0.00000000E+00  0.00000000E+00
  0.00000000E+00  0.00000000E+00  0.00000000E+00
