Automatic mesh
0
Gamma
  9  5  1
  0.  0.  0.

