(Li2 Mn15 O30)2  (P1) ~ CONTCAR (VASP)  
   1.00000000000000     
     4.6388412762906812    0.0001941549495849    0.0048386442455813
     0.0001372019139214    2.9377139918497894   -0.0000517714929081
     0.0236804497948305   -0.0014617012717630   68.7803428086972559
   Mn   O    Li
    30    60     1
Direct
  0.0717042312705547  0.2581438109316704  0.6034877345641440
  0.0584483296109516  0.2551751028084946  0.4693858919525036
  0.9669149122735914  0.7569602195640375  0.0229306877802482
  0.0521576236636622  0.2526765805131092  0.3343652900180011
  0.9747216875225717  0.7528663750140685  0.1607464071594231
  0.0348460024439524  0.2524357812059697  0.1979462605530073
  0.9609161970206986  0.7523384767661810  0.2976409882351740
  0.0332869237348718  0.2558146733697454  0.0603035164459106
  0.9527595572301822  0.7545384120687713  0.4329779128664684
  0.9593055947736090  0.7578876554166243  0.5673628308555186
  0.4440846049076432  0.2562381331251400  0.6696839890914302
  0.4593605887587738  0.2569983637117915  0.5366532521112397
  0.4531015916646434  0.2537887357743112  0.4020379239460644
  0.5338358478365139  0.7545732149366228  0.0919031310239793
  0.4609865417373712  0.2521175276018013  0.2663802020027998
  0.5345025839645895  0.7521426064403103  0.2293728279296998
  0.4760535541383506  0.2536994630376687  0.1292170476021360
  0.5520681071775803  0.7532322075814261  0.3654492530273739
  0.5593376074210964  0.7561484192387899  0.5002433647609349
  0.5703308163948994  0.7575375085713509  0.6339076741737406
  0.9688691790444075  0.7499810049517681  0.7043243356168667
  0.9758558415798676  0.7583341127349634  0.7706137172082119
  0.9730643790450147  0.7619235391454108  0.8330684524384658
  0.9705627654154180  0.7615799781572946  0.8960195086227255
  0.9684317665424048  0.7595200468525696  0.9594411645884728
  0.4764091606514610  0.2541550801000725  0.7396378153535804
  0.4738401845604795  0.2608219174094691  0.8018035492169958
  0.4718239686633535  0.2621032597113370  0.8644730677291456
  0.4707367682708964  0.2606537502731952  0.9276846477281815
  0.4689306192792533  0.2583157980566403  0.9912391692795517
  0.4043254437416237  0.2576833603492238  0.6201452814280487
  0.3819249620252477  0.2559211289448993  0.4870464720094592
  0.6466314779884050  0.7580218112371788  0.0049294282790420
  0.3725039628296505  0.2530993497121038  0.3523662759133969
  0.6766288255454364  0.7534890534274472  0.1411109745044940
  0.3375301773949620  0.2521689971460774  0.2174195892687880
  0.6483526420464466  0.7521144227716975  0.2790681640647284
  0.3329054608095479  0.2547692672970962  0.0801738660979978
  0.6287456847534574  0.7538943764118944  0.4153991711575319
  0.6347502601215151  0.7571549319816568  0.5499792541745718
  0.6180324216021243  0.7545020913448596  0.6847103257994420
  0.1328596279364308  0.2516375145980105  0.6891153472713888
  0.1342755560448035  0.2576984685463661  0.5540724474741497
  0.1286252834436228  0.2543385024281714  0.4196694541237701
  0.8338986416790742  0.7555368464933767  0.0723466506420479
  0.1478722623886654  0.2522387529046831  0.2850198188034120
  0.8377970376029802  0.7523590371393333  0.2100644439413371
  0.1769674056010139  0.2529611156760951  0.1491046916511093
  0.8725738210267285  0.7527656963578703  0.3475172372562707
  0.1598674995136146  0.2571798460602013  0.0107056056437147
  0.8827401027717847  0.7553411078535701  0.4827022302816821
  0.9036116045933336  0.7580702317109865  0.6172811404092804
  0.7274674018147224  0.2572532195067038  0.6492145965963892
  0.7266369863237154  0.2562509569382415  0.5150994621585221
  0.7194656861844029  0.2532900562290269  0.3803287188901858
  0.2934049088284053  0.7538325388807930  0.1153129861122223
  0.7120386389258494  0.2520752617886031  0.2437302972203439
  0.2847658501342276  0.7521067650293124  0.2521039861129953
  0.7159551729085031  0.2543194908907169  0.1060037045756984
  0.2862752316934781  0.7536576350457451  0.3872109004623397
  0.2924148691833081  0.7568039705548739  0.5218539670114255
  0.2873591767025946  0.7566840395744536  0.6546415407040657
  0.7963246076394001  0.2579699737101390  0.5824501190361588
  0.7881179868909258  0.2546526765420233  0.4479859628934651
  0.2129732213028204  0.7559604107179868  0.0461585328337214
  0.7901533554294449  0.2524115552405898  0.3123806006688996
  0.2163861609658893  0.7524393729905063  0.1839598190625406
  0.7927304934983146  0.2527574205463946  0.1748783231232440
  0.2217834669163392  0.7525449995810045  0.3196806533615662
  0.7896822146363114  0.2566983810606071  0.0373988129539277
  0.2232017009828966  0.7549698480714139  0.4544405325690184
  0.2334384462825831  0.7580428829790721  0.5884401540004643
  0.6499001816846893  0.7552673917593428  0.7525956939388272
  0.6391885808628722  0.7610246784068549  0.8158671884297777
  0.6390246262995670  0.7619926916216688  0.8785560578218237
  0.6389674603555433  0.7603985326455979  0.9418269167767677
  0.7993949072150701  0.2504393448781565  0.7185657939201689
  0.8065077649356232  0.2588852913133328  0.7844658513384379
  0.8051765851436605  0.2619879234688815  0.8471082228889902
  0.8019891621335158  0.2613981160613019  0.9101234113336744
  0.7997994129126281  0.2592553308394390  0.9735843311617078
  0.1390507106321899  0.2573682165041563  0.7559588782497331
  0.1384719159238948  0.2617165352603961  0.8187645573727271
  0.1391309379515113  0.2616467510142994  0.8819174013078275
  0.1400301840979901  0.2596633008306280  0.9455188504112498
  0.3136795968482824  0.7511364468683930  0.7227355138628934
  0.3107627955173405  0.7602699549500843  0.7873888097371408
  0.3051124901708683  0.7620823111981894  0.8503108393155824
  0.3013329412174622  0.7608076989053486  0.9136750286041717
  0.2961125830254510  0.7584917086707150  0.9775557766692587
  0.4635247477685726  0.2361049234615990  0.7045659824343617
 
  0.00000000E+00  0.00000000E+00  0.00000000E+00
  0.00000000E+00  0.00000000E+00  0.00000000E+00
  0.00000000E+00  0.00000000E+00  0.00000000E+00
  0.00000000E+00  0.00000000E+00  0.00000000E+00
  0.00000000E+00  0.00000000E+00  0.00000000E+00
  0.00000000E+00  0.00000000E+00  0.00000000E+00
  0.00000000E+00  0.00000000E+00  0.00000000E+00
  0.00000000E+00  0.00000000E+00  0.00000000E+00
  0.00000000E+00  0.00000000E+00  0.00000000E+00
  0.00000000E+00  0.00000000E+00  0.00000000E+00
  0.00000000E+00  0.00000000E+00  0.00000000E+00
  0.00000000E+00  0.00000000E+00  0.00000000E+00
  0.00000000E+00  0.00000000E+00  0.00000000E+00
  0.00000000E+00  0.00000000E+00  0.00000000E+00
  0.00000000E+00  0.00000000E+00  0.00000000E+00
  0.00000000E+00  0.00000000E+00  0.00000000E+00
  0.00000000E+00  0.00000000E+00  0.00000000E+00
  0.00000000E+00  0.00000000E+00  0.00000000E+00
  0.00000000E+00  0.00000000E+00  0.00000000E+00
  0.00000000E+00  0.00000000E+00  0.00000000E+00
  0.00000000E+00  0.00000000E+00  0.00000000E+00
  0.00000000E+00  0.00000000E+00  0.00000000E+00
  0.00000000E+00  0.00000000E+00  0.00000000E+00
  0.00000000E+00  0.00000000E+00  0.00000000E+00
  0.00000000E+00  0.00000000E+00  0.00000000E+00
  0.00000000E+00  0.00000000E+00  0.00000000E+00
  0.00000000E+00  0.00000000E+00  0.00000000E+00
  0.00000000E+00  0.00000000E+00  0.00000000E+00
  0.00000000E+00  0.00000000E+00  0.00000000E+00
  0.00000000E+00  0.00000000E+00  0.00000000E+00
  0.00000000E+00  0.00000000E+00  0.00000000E+00
  0.00000000E+00  0.00000000E+00  0.00000000E+00
  0.00000000E+00  0.00000000E+00  0.00000000E+00
  0.00000000E+00  0.00000000E+00  0.00000000E+00
  0.00000000E+00  0.00000000E+00  0.00000000E+00
  0.00000000E+00  0.00000000E+00  0.00000000E+00
  0.00000000E+00  0.00000000E+00  0.00000000E+00
  0.00000000E+00  0.00000000E+00  0.00000000E+00
  0.00000000E+00  0.00000000E+00  0.00000000E+00
  0.00000000E+00  0.00000000E+00  0.00000000E+00
  0.00000000E+00  0.00000000E+00  0.00000000E+00
  0.00000000E+00  0.00000000E+00  0.00000000E+00
  0.00000000E+00  0.00000000E+00  0.00000000E+00
  0.00000000E+00  0.00000000E+00  0.00000000E+00
  0.00000000E+00  0.00000000E+00  0.00000000E+00
  0.00000000E+00  0.00000000E+00  0.00000000E+00
  0.00000000E+00  0.00000000E+00  0.00000000E+00
  0.00000000E+00  0.00000000E+00  0.00000000E+00
  0.00000000E+00  0.00000000E+00  0.00000000E+00
  0.00000000E+00  0.00000000E+00  0.00000000E+00
  0.00000000E+00  0.00000000E+00  0.00000000E+00
  0.00000000E+00  0.00000000E+00  0.00000000E+00
  0.00000000E+00  0.00000000E+00  0.00000000E+00
  0.00000000E+00  0.00000000E+00  0.00000000E+00
  0.00000000E+00  0.00000000E+00  0.00000000E+00
  0.00000000E+00  0.00000000E+00  0.00000000E+00
  0.00000000E+00  0.00000000E+00  0.00000000E+00
  0.00000000E+00  0.00000000E+00  0.00000000E+00
  0.00000000E+00  0.00000000E+00  0.00000000E+00
  0.00000000E+00  0.00000000E+00  0.00000000E+00
  0.00000000E+00  0.00000000E+00  0.00000000E+00
  0.00000000E+00  0.00000000E+00  0.00000000E+00
  0.00000000E+00  0.00000000E+00  0.00000000E+00
  0.00000000E+00  0.00000000E+00  0.00000000E+00
  0.00000000E+00  0.00000000E+00  0.00000000E+00
  0.00000000E+00  0.00000000E+00  0.00000000E+00
  0.00000000E+00  0.00000000E+00  0.00000000E+00
  0.00000000E+00  0.00000000E+00  0.00000000E+00
  0.00000000E+00  0.00000000E+00  0.00000000E+00
  0.00000000E+00  0.00000000E+00  0.00000000E+00
  0.00000000E+00  0.00000000E+00  0.00000000E+00
  0.00000000E+00  0.00000000E+00  0.00000000E+00
  0.00000000E+00  0.00000000E+00  0.00000000E+00
  0.00000000E+00  0.00000000E+00  0.00000000E+00
  0.00000000E+00  0.00000000E+00  0.00000000E+00
  0.00000000E+00  0.00000000E+00  0.00000000E+00
  0.00000000E+00  0.00000000E+00  0.00000000E+00
  0.00000000E+00  0.00000000E+00  0.00000000E+00
  0.00000000E+00  0.00000000E+00  0.00000000E+00
  0.00000000E+00  0.00000000E+00  0.00000000E+00
  0.00000000E+00  0.00000000E+00  0.00000000E+00
  0.00000000E+00  0.00000000E+00  0.00000000E+00
  0.00000000E+00  0.00000000E+00  0.00000000E+00
  0.00000000E+00  0.00000000E+00  0.00000000E+00
  0.00000000E+00  0.00000000E+00  0.00000000E+00
  0.00000000E+00  0.00000000E+00  0.00000000E+00
  0.00000000E+00  0.00000000E+00  0.00000000E+00
  0.00000000E+00  0.00000000E+00  0.00000000E+00
  0.00000000E+00  0.00000000E+00  0.00000000E+00
  0.00000000E+00  0.00000000E+00  0.00000000E+00
  0.00000000E+00  0.00000000E+00  0.00000000E+00
