(Li2 Mn15 O30)2  (P1) ~ CONTCAR (VASP)  
   1.00000000000000     
     4.6385844405557570    0.0001970302303270    0.0048257075937708
     0.0001390228215623    2.9376050267815939   -0.0000546265587113
     0.0234872331309866   -0.0015284630422231   68.7804422411789744
   Mn   O    Li
    30    60     1
Direct
  0.0716415926814794  0.2582051258977812  0.6034927117170050
  0.0583603724062605  0.2551745643646863  0.4693922071623383
  0.9669549260225858  0.7569559913923188  0.0229294085559205
  0.0521320305754542  0.2526657211149733  0.3343698011271607
  0.9747688974315044  0.7528503952902551  0.1607516057275408
  0.0348051670034083  0.2524215046292933  0.1979519156240801
  0.9609439717308186  0.7523278714998521  0.2976457930106389
  0.0332122198005603  0.2558125988147856  0.0603038350386684
  0.9527836403266705  0.7545285488943838  0.4329832187532786
  0.9594443147768017  0.7579235508549210  0.5673693654309342
  0.4441010575893761  0.2562572099434211  0.6696852597164036
  0.4595112095769783  0.2570117171530416  0.5366607179200438
  0.4531344484337841  0.2537852654949961  0.4020420839416529
  0.5337736789774487  0.7545672472779847  0.0919058089647408
  0.4609999865523354  0.2521032209723548  0.2663855874779102
  0.5344534735310488  0.7521305861945932  0.2293790178472784
  0.4760976035732667  0.2536873746034770  0.1292212490489734
  0.5520322536508704  0.7532267391066475  0.3654551306591232
  0.5592628162651602  0.7561442838757733  0.5002495359945567
  0.5702578433297668  0.7575832156853499  0.6339125534687260
  0.9688994622131326  0.7498682175969502  0.7043228895970249
  0.9758632624097749  0.7583754748691900  0.7706040772035188
  0.9730454356646855  0.7619821799229354  0.8330544110424866
  0.9705480867735132  0.7615968905057079  0.8960057053477879
  0.9684441299259783  0.7595302215585772  0.9594343844570751
  0.4764231020703656  0.2541156633543923  0.7396333920725143
  0.4738344680151451  0.2608873051499522  0.8017907809249954
  0.4718101230576527  0.2621391570329354  0.8644579557858098
  0.4707270824107201  0.2606693794259242  0.9276737677422987
  0.4689594519504408  0.2583102177830315  0.9912351003409763
  0.4042083285151800  0.2577347267082908  0.6201545581316016
  0.3817446424706758  0.2559172156748976  0.4870625468341440
  0.6467185260639723  0.7580286261412260  0.0049221004546812
  0.3724640038540549  0.2530932387565833  0.3523728976066788
  0.6767128253347022  0.7534760562051381  0.1411106017203466
  0.3374136603122174  0.2521531315407550  0.2174284190666436
  0.6484033136352874  0.7521055741166842  0.2790692353671475
  0.3327774875014894  0.2547565641466092  0.0801814311442308
  0.6288307668753161  0.7538881995775195  0.4154008770495818
  0.6350272495589423  0.7571711022315932  0.5499771866829494
  0.6180913695785452  0.7544922923050925  0.6847089559250391
  0.1329017819927711  0.2515662253930449  0.6891151018844731
  0.1345516504576149  0.2577313892092052  0.5540903383080075
  0.1286811323532014  0.2543334686047181  0.4196789753327572
  0.8337963749229277  0.7555347234045879  0.0723443968344928
  0.1479348391504843  0.2522313528478817  0.2850274536769293
  0.8377190151062850  0.7523427304776044  0.2100645930684590
  0.1770771469688570  0.2529460793724501  0.1491139808954648
  0.8725027989149473  0.7527625939162788  0.3475190099482664
  0.1599955328296773  0.2571800044911630  0.0107108807931785
  0.8825525511662553  0.7553335673103290  0.4827016067125942
  0.9034850174772904  0.7581198159225194  0.6172813280447043
  0.7274512360907023  0.2573014728074107  0.6492147631618886
  0.7266545576426328  0.2562522209413379  0.5151015431004177
  0.7194516654559024  0.2532851238622055  0.3803320747922116
  0.2934160335752327  0.7538231828099022  0.1153198658519383
  0.7120246141410814  0.2520616223641869  0.2437323022843823
  0.2847603526383320  0.7520939625711410  0.2521099261073382
  0.7159275022873587  0.2543095996032841  0.1060046314959901
  0.2862681579807961  0.7536512648178189  0.3872177455949523
  0.2924617913911202  0.7568126680359778  0.5218682742296689
  0.2873060322626231  0.7567129433445987  0.6546456483638607
  0.7963613175822698  0.2580109589922104  0.5824517489326659
  0.7881065168016393  0.2546483275570343  0.4479895347830298
  0.2129217912150545  0.7559516013438576  0.0461634342443032
  0.7901461033052445  0.2524022424078404  0.3123831338261165
  0.2163642176513388  0.7524230663772005  0.1839664354796923
  0.7927329254350057  0.2527460044374206  0.1748795050220465
  0.2217843588211468  0.7525363933386172  0.3196858796307603
  0.7896852317811587  0.2566929546728994  0.0373970989041389
  0.2231730125705144  0.7549617714830622  0.4544514698120083
  0.2334744938487253  0.7580880045118810  0.5884519433619717
  0.6499001659191084  0.7552469449858461  0.7525900145123202
  0.6391593720599121  0.7610905670850365  0.8158547566549615
  0.6390183450425939  0.7620298916830923  0.8785397685662949
  0.6390033655706581  0.7604045888959240  0.9418146043152029
  0.7994253911218833  0.2503323126530071  0.7185649095842394
  0.8065229187235300  0.2589294836390948  0.7844561857752920
  0.8051426673231029  0.2620470280754784  0.8470928387779854
  0.8019456494603779  0.2614184715897036  0.9101084688146415
  0.7997762919684148  0.2592592148391106  0.9735746198400155
  0.1390459838593201  0.2573878673842183  0.7559505161624396
  0.1384287536586087  0.2617797796155943  0.8187505489499209
  0.1391275634005940  0.2616715467561853  0.8819043716387992
  0.1400676885094237  0.2596655793162876  0.9455137693535776
  0.3137221635585674  0.7510598695505050  0.7227316332926986
  0.3107750490282338  0.7603296395650634  0.7873772208869525
  0.3050900449025530  0.7621287078007795  0.8502970142377559
  0.3012995198027814  0.7608163309632511  0.9136656917376407
  0.2960741994095145  0.7584936671722596  0.9775559290327522
  0.4635876904352512  0.2357132735350360  0.7045626917032697
 
  0.00000000E+00  0.00000000E+00  0.00000000E+00
  0.00000000E+00  0.00000000E+00  0.00000000E+00
  0.00000000E+00  0.00000000E+00  0.00000000E+00
  0.00000000E+00  0.00000000E+00  0.00000000E+00
  0.00000000E+00  0.00000000E+00  0.00000000E+00
  0.00000000E+00  0.00000000E+00  0.00000000E+00
  0.00000000E+00  0.00000000E+00  0.00000000E+00
  0.00000000E+00  0.00000000E+00  0.00000000E+00
  0.00000000E+00  0.00000000E+00  0.00000000E+00
  0.00000000E+00  0.00000000E+00  0.00000000E+00
  0.00000000E+00  0.00000000E+00  0.00000000E+00
  0.00000000E+00  0.00000000E+00  0.00000000E+00
  0.00000000E+00  0.00000000E+00  0.00000000E+00
  0.00000000E+00  0.00000000E+00  0.00000000E+00
  0.00000000E+00  0.00000000E+00  0.00000000E+00
  0.00000000E+00  0.00000000E+00  0.00000000E+00
  0.00000000E+00  0.00000000E+00  0.00000000E+00
  0.00000000E+00  0.00000000E+00  0.00000000E+00
  0.00000000E+00  0.00000000E+00  0.00000000E+00
  0.00000000E+00  0.00000000E+00  0.00000000E+00
  0.00000000E+00  0.00000000E+00  0.00000000E+00
  0.00000000E+00  0.00000000E+00  0.00000000E+00
  0.00000000E+00  0.00000000E+00  0.00000000E+00
  0.00000000E+00  0.00000000E+00  0.00000000E+00
  0.00000000E+00  0.00000000E+00  0.00000000E+00
  0.00000000E+00  0.00000000E+00  0.00000000E+00
  0.00000000E+00  0.00000000E+00  0.00000000E+00
  0.00000000E+00  0.00000000E+00  0.00000000E+00
  0.00000000E+00  0.00000000E+00  0.00000000E+00
  0.00000000E+00  0.00000000E+00  0.00000000E+00
  0.00000000E+00  0.00000000E+00  0.00000000E+00
  0.00000000E+00  0.00000000E+00  0.00000000E+00
  0.00000000E+00  0.00000000E+00  0.00000000E+00
  0.00000000E+00  0.00000000E+00  0.00000000E+00
  0.00000000E+00  0.00000000E+00  0.00000000E+00
  0.00000000E+00  0.00000000E+00  0.00000000E+00
  0.00000000E+00  0.00000000E+00  0.00000000E+00
  0.00000000E+00  0.00000000E+00  0.00000000E+00
  0.00000000E+00  0.00000000E+00  0.00000000E+00
  0.00000000E+00  0.00000000E+00  0.00000000E+00
  0.00000000E+00  0.00000000E+00  0.00000000E+00
  0.00000000E+00  0.00000000E+00  0.00000000E+00
  0.00000000E+00  0.00000000E+00  0.00000000E+00
  0.00000000E+00  0.00000000E+00  0.00000000E+00
  0.00000000E+00  0.00000000E+00  0.00000000E+00
  0.00000000E+00  0.00000000E+00  0.00000000E+00
  0.00000000E+00  0.00000000E+00  0.00000000E+00
  0.00000000E+00  0.00000000E+00  0.00000000E+00
  0.00000000E+00  0.00000000E+00  0.00000000E+00
  0.00000000E+00  0.00000000E+00  0.00000000E+00
  0.00000000E+00  0.00000000E+00  0.00000000E+00
  0.00000000E+00  0.00000000E+00  0.00000000E+00
  0.00000000E+00  0.00000000E+00  0.00000000E+00
  0.00000000E+00  0.00000000E+00  0.00000000E+00
  0.00000000E+00  0.00000000E+00  0.00000000E+00
  0.00000000E+00  0.00000000E+00  0.00000000E+00
  0.00000000E+00  0.00000000E+00  0.00000000E+00
  0.00000000E+00  0.00000000E+00  0.00000000E+00
  0.00000000E+00  0.00000000E+00  0.00000000E+00
  0.00000000E+00  0.00000000E+00  0.00000000E+00
  0.00000000E+00  0.00000000E+00  0.00000000E+00
  0.00000000E+00  0.00000000E+00  0.00000000E+00
  0.00000000E+00  0.00000000E+00  0.00000000E+00
  0.00000000E+00  0.00000000E+00  0.00000000E+00
  0.00000000E+00  0.00000000E+00  0.00000000E+00
  0.00000000E+00  0.00000000E+00  0.00000000E+00
  0.00000000E+00  0.00000000E+00  0.00000000E+00
  0.00000000E+00  0.00000000E+00  0.00000000E+00
  0.00000000E+00  0.00000000E+00  0.00000000E+00
  0.00000000E+00  0.00000000E+00  0.00000000E+00
  0.00000000E+00  0.00000000E+00  0.00000000E+00
  0.00000000E+00  0.00000000E+00  0.00000000E+00
  0.00000000E+00  0.00000000E+00  0.00000000E+00
  0.00000000E+00  0.00000000E+00  0.00000000E+00
  0.00000000E+00  0.00000000E+00  0.00000000E+00
  0.00000000E+00  0.00000000E+00  0.00000000E+00
  0.00000000E+00  0.00000000E+00  0.00000000E+00
  0.00000000E+00  0.00000000E+00  0.00000000E+00
  0.00000000E+00  0.00000000E+00  0.00000000E+00
  0.00000000E+00  0.00000000E+00  0.00000000E+00
  0.00000000E+00  0.00000000E+00  0.00000000E+00
  0.00000000E+00  0.00000000E+00  0.00000000E+00
  0.00000000E+00  0.00000000E+00  0.00000000E+00
  0.00000000E+00  0.00000000E+00  0.00000000E+00
  0.00000000E+00  0.00000000E+00  0.00000000E+00
  0.00000000E+00  0.00000000E+00  0.00000000E+00
  0.00000000E+00  0.00000000E+00  0.00000000E+00
  0.00000000E+00  0.00000000E+00  0.00000000E+00
  0.00000000E+00  0.00000000E+00  0.00000000E+00
  0.00000000E+00  0.00000000E+00  0.00000000E+00
  0.00000000E+00  0.00000000E+00  0.00000000E+00
