(Mn O2)2  (P4_2/mnm) ~  (Pearson #311740
   1.00000000000000     
     4.3931206886867153    0.0000000000000000    0.0000000000000000
    -0.0000000000000000    4.3931206886867153    0.0000000000000000
     0.0000000000000000    0.0000000000000000    2.9006015907503735
   O    Mn
     4     2
Direct
  0.3054210845150240  0.3054210845150240 -0.0000000000000000
  0.8054210845150240  0.1945789154849760  0.5000000000000000
  0.1945789154849760  0.8054210845150240  0.5000000000000000
  0.6945789154849760  0.6945789154849760  0.0000000000000000
 -0.0000000000000000  0.0000000000000000  0.0000000000000000
  0.5000000000000000  0.5000000000000000  0.5000000000000000
 
  0.00000000E+00  0.00000000E+00  0.00000000E+00
  0.00000000E+00  0.00000000E+00  0.00000000E+00
  0.00000000E+00  0.00000000E+00  0.00000000E+00
  0.00000000E+00  0.00000000E+00  0.00000000E+00
  0.00000000E+00  0.00000000E+00  0.00000000E+00
  0.00000000E+00  0.00000000E+00  0.00000000E+00
