Automatic mesh
0
Gamma
  2  1  1
  0.  0.  0.

