(Mn O2)2  (P4_2/mnm) ~  (Pearson #311740
   1.00000000000000     
     4.3922967031267799   -0.0000000000000000    0.0000000000000000
    -0.0000000000000000    4.3922967031267799    0.0000000000000000
     0.0000000000000000    0.0000000000000000    2.8993287118080930
   O    Mn
     4     2
Direct
  0.3054913078776428  0.3054913078776428 -0.0000000000000000
  0.8054913078776427  0.1945086921223573  0.5000000000000000
  0.1945086921223573  0.8054913078776427  0.5000000000000000
  0.6945086921223573  0.6945086921223573  0.0000000000000000
 -0.0000000000000000 -0.0000000000000000  0.0000000000000000
  0.5000000000000000  0.5000000000000000  0.5000000000000000
 
  0.00000000E+00  0.00000000E+00  0.00000000E+00
  0.00000000E+00  0.00000000E+00  0.00000000E+00
  0.00000000E+00  0.00000000E+00  0.00000000E+00
  0.00000000E+00  0.00000000E+00  0.00000000E+00
  0.00000000E+00  0.00000000E+00  0.00000000E+00
  0.00000000E+00  0.00000000E+00  0.00000000E+00
