(Li2 Mn15 O30)2  (P1) ~ CONTCAR (VASP)  
   1.00000000000000     
     4.6545667473067693    0.0003543903505601    0.0071096175418135
     0.0002332867179302    2.9438339776018383    0.0004446599950640
     0.0583544901433620    0.0101777241303441   68.2359240055678953
   Mn   O    Li
    30    60     1
Direct
  0.0721981233331051  0.2585086348494529  0.6058613267278659
  0.0794204065612352  0.2558326324967885  0.4712572889667863
  0.9632282070620241  0.7570794687669077  0.0225933485352376
  0.0434696211220061  0.2501246368593991  0.3329321542904020
  0.9677683728830431  0.7536356564661860  0.1600674677646191
  0.0411385104947848  0.2530854408319134  0.1971713180809513
  0.9430601222702938  0.7514673116728259  0.2962001261163560
  0.0398846801856450  0.2560895617006039  0.0599423988615567
  0.9521744604991176  0.7558266301506571  0.4349128214664775
  0.9576252701472520  0.7577857752981216  0.5693116906974364
  0.4681199304122621  0.2602134287678813  0.6737287514385210
  0.4568796508192525  0.2569241951187105  0.5384829676336690
  0.4483157291627620  0.2560313807282074  0.4026261787293506
  0.5397516662649999  0.7551126447039671  0.0914238019821506
  0.4450927970884913  0.2521265992576400  0.2651750026498659
  0.5397417633553770  0.7525726870829710  0.2283648393086885
  0.4695314732864361  0.2543517868517498  0.1286935116665781
  0.5457282919424354  0.7521483211946804  0.3638846358177786
  0.5765988473300756  0.7564282237220971  0.5020011599167229
  0.5705901810829573  0.7595112695097520  0.6368424371929101
  0.9690640636891227  0.7609825950610528  0.7050684898076198
  0.9696663193087838  0.7618503679100931  0.7683400089161649
  0.9693371282042246  0.7618076153851909  0.8318900114751074
  0.9685118076691113  0.7608689744657482  0.8955512215125107
  0.9663319212458059  0.7591656101383308  0.9592140668263412
  0.4679551867532561  0.2614973020356913  0.7366501250979214
  0.4688243997882612  0.2619611309277989  0.8000941845917359
  0.4692774184678282  0.2614564163736139  0.8637110553323263
  0.4687208015395392  0.2601014090551961  0.9273888434247561
  0.4655737041535942  0.2581706741165005  0.9909970073459425
  0.3986482382278131  0.2593278888737533  0.6230850127371153
  0.4112118858801244  0.2563379911565847  0.4878415117507861
  0.6375149908695393  0.7578578947387056  0.0050147622165429
  0.3616105821030360  0.2497970945855137  0.3513406819303049
  0.6630443967873323  0.7541027780061453  0.1409838303440704
  0.3541097696089934  0.2527218891445298  0.2157434681837568
  0.6226622906276469  0.7519335019483869  0.2784764314452433
  0.3456121639208812  0.2553308643763205  0.0792541956792913
  0.6364410916774075  0.7560177314969024  0.4157589598258210
  0.6254790702289955  0.7569696266534609  0.5521738375335392
  0.6477126381001026  0.7602495490924427  0.6866849310951940
  0.1366756803781387  0.2608544850184320  0.6907090659647009
  0.1250723105425933  0.2575921987716692  0.5552863623950043
  0.1132386738466391  0.2558676138314149  0.4193719777691634
  0.8468755216634141  0.7558411088094842  0.0723574665061067
  0.1224777538506665  0.2516432731905153  0.2831125355842682
  0.8539393782287452  0.7529448323488812  0.2099278259431904
  0.1632165484254119  0.2537437568907719  0.1479841281179895
  0.8704574939188156  0.7506187537042067  0.3470119085373177
  0.1495330208167432  0.2572737003327920  0.0098992309740270
  0.9114002555257835  0.7558553488715123  0.4850049125872130
  0.8990382904483184  0.7586148326666253  0.6193038781655371
  0.7350279636117950  0.2594875764803014  0.6517284159687077
  0.7346274400671768  0.2563526547730038  0.5172304507405874
  0.7244952701072717  0.2568696348870831  0.3812502707113324
  0.2917947025453659  0.7545595360982384  0.1144637047280024
  0.7089010664590232  0.2523574683517542  0.2432144587968227
  0.2770904875646131  0.7522627722545077  0.2504409191875121
  0.7171148832406169  0.2548265416047621  0.1058078675528612
  0.2915544784856250  0.7553392831948843  0.3869700086203698
  0.2990098309352510  0.7568771012856675  0.5229950020195719
  0.3035435283670009  0.7601156806352092  0.6584972334905905
  0.7975136074702662  0.2578530588937455  0.5844709093059974
  0.7963655493813839  0.2554212807627928  0.4500769496009178
  0.2153052991414611  0.7562332596641647  0.0454736689118912
  0.7753341464252553  0.2513712118480299  0.3112117174260327
  0.2172775404677711  0.7531653957589138  0.1828251935069699
  0.7906116661574776  0.2534879327218546  0.1745402051191297
  0.2101783543413358  0.7505555752752767  0.3181233050288101
  0.7899719346359575  0.2568202759190268  0.0373164273003448
  0.2362752925481483  0.7557684563181881  0.4555817583055350
  0.2322799328431339  0.7583028507195818  0.5904307309191287
  0.6366269662055456  0.7614577915865578  0.7507084461136486
  0.6373124050119022  0.7618300823341436  0.8142266142355024
  0.6371435225979644  0.7612394613970396  0.8779314994048705
  0.6358452104170641  0.7598100286808993  0.9416709369650288
  0.8013942258484087  0.2610004770623877  0.7190595745614328
  0.8011331707798700  0.2618012788879953  0.7824355120221796
  0.8011929162931419  0.2616720640803202  0.8460765690822630
  0.8009039893403304  0.2606483044217089  0.9098256015894026
  0.8000861616128088  0.2588867572253855  0.9735857318476845
  0.1358817520738680  0.2617993682482297  0.7539846782312384
  0.1369332328044130  0.2618487827145483  0.8176423969401801
  0.1373862954387872  0.2609820843659346  0.8814028958817914
  0.1365065467543580  0.2593424256629651  0.9451459525519668
  0.3035880000065070  0.7614347846487064  0.7221797265949188
  0.3018134907188303  0.7619887477388863  0.7857985834888985
  0.3012215547802608  0.7615694569453630  0.8495161135498606
  0.3002579870774197  0.7602821270653152  0.9132686281809476
  0.2971756157824116  0.7583755511201178  0.9770074652050921
  0.9220384398599503  0.7566482323577035  0.3938730588514467
 
  0.00000000E+00  0.00000000E+00  0.00000000E+00
  0.00000000E+00  0.00000000E+00  0.00000000E+00
  0.00000000E+00  0.00000000E+00  0.00000000E+00
  0.00000000E+00  0.00000000E+00  0.00000000E+00
  0.00000000E+00  0.00000000E+00  0.00000000E+00
  0.00000000E+00  0.00000000E+00  0.00000000E+00
  0.00000000E+00  0.00000000E+00  0.00000000E+00
  0.00000000E+00  0.00000000E+00  0.00000000E+00
  0.00000000E+00  0.00000000E+00  0.00000000E+00
  0.00000000E+00  0.00000000E+00  0.00000000E+00
  0.00000000E+00  0.00000000E+00  0.00000000E+00
  0.00000000E+00  0.00000000E+00  0.00000000E+00
  0.00000000E+00  0.00000000E+00  0.00000000E+00
  0.00000000E+00  0.00000000E+00  0.00000000E+00
  0.00000000E+00  0.00000000E+00  0.00000000E+00
  0.00000000E+00  0.00000000E+00  0.00000000E+00
  0.00000000E+00  0.00000000E+00  0.00000000E+00
  0.00000000E+00  0.00000000E+00  0.00000000E+00
  0.00000000E+00  0.00000000E+00  0.00000000E+00
  0.00000000E+00  0.00000000E+00  0.00000000E+00
  0.00000000E+00  0.00000000E+00  0.00000000E+00
  0.00000000E+00  0.00000000E+00  0.00000000E+00
  0.00000000E+00  0.00000000E+00  0.00000000E+00
  0.00000000E+00  0.00000000E+00  0.00000000E+00
  0.00000000E+00  0.00000000E+00  0.00000000E+00
  0.00000000E+00  0.00000000E+00  0.00000000E+00
  0.00000000E+00  0.00000000E+00  0.00000000E+00
  0.00000000E+00  0.00000000E+00  0.00000000E+00
  0.00000000E+00  0.00000000E+00  0.00000000E+00
  0.00000000E+00  0.00000000E+00  0.00000000E+00
  0.00000000E+00  0.00000000E+00  0.00000000E+00
  0.00000000E+00  0.00000000E+00  0.00000000E+00
  0.00000000E+00  0.00000000E+00  0.00000000E+00
  0.00000000E+00  0.00000000E+00  0.00000000E+00
  0.00000000E+00  0.00000000E+00  0.00000000E+00
  0.00000000E+00  0.00000000E+00  0.00000000E+00
  0.00000000E+00  0.00000000E+00  0.00000000E+00
  0.00000000E+00  0.00000000E+00  0.00000000E+00
  0.00000000E+00  0.00000000E+00  0.00000000E+00
  0.00000000E+00  0.00000000E+00  0.00000000E+00
  0.00000000E+00  0.00000000E+00  0.00000000E+00
  0.00000000E+00  0.00000000E+00  0.00000000E+00
  0.00000000E+00  0.00000000E+00  0.00000000E+00
  0.00000000E+00  0.00000000E+00  0.00000000E+00
  0.00000000E+00  0.00000000E+00  0.00000000E+00
  0.00000000E+00  0.00000000E+00  0.00000000E+00
  0.00000000E+00  0.00000000E+00  0.00000000E+00
  0.00000000E+00  0.00000000E+00  0.00000000E+00
  0.00000000E+00  0.00000000E+00  0.00000000E+00
  0.00000000E+00  0.00000000E+00  0.00000000E+00
  0.00000000E+00  0.00000000E+00  0.00000000E+00
  0.00000000E+00  0.00000000E+00  0.00000000E+00
  0.00000000E+00  0.00000000E+00  0.00000000E+00
  0.00000000E+00  0.00000000E+00  0.00000000E+00
  0.00000000E+00  0.00000000E+00  0.00000000E+00
  0.00000000E+00  0.00000000E+00  0.00000000E+00
  0.00000000E+00  0.00000000E+00  0.00000000E+00
  0.00000000E+00  0.00000000E+00  0.00000000E+00
  0.00000000E+00  0.00000000E+00  0.00000000E+00
  0.00000000E+00  0.00000000E+00  0.00000000E+00
  0.00000000E+00  0.00000000E+00  0.00000000E+00
  0.00000000E+00  0.00000000E+00  0.00000000E+00
  0.00000000E+00  0.00000000E+00  0.00000000E+00
  0.00000000E+00  0.00000000E+00  0.00000000E+00
  0.00000000E+00  0.00000000E+00  0.00000000E+00
  0.00000000E+00  0.00000000E+00  0.00000000E+00
  0.00000000E+00  0.00000000E+00  0.00000000E+00
  0.00000000E+00  0.00000000E+00  0.00000000E+00
  0.00000000E+00  0.00000000E+00  0.00000000E+00
  0.00000000E+00  0.00000000E+00  0.00000000E+00
  0.00000000E+00  0.00000000E+00  0.00000000E+00
  0.00000000E+00  0.00000000E+00  0.00000000E+00
  0.00000000E+00  0.00000000E+00  0.00000000E+00
  0.00000000E+00  0.00000000E+00  0.00000000E+00
  0.00000000E+00  0.00000000E+00  0.00000000E+00
  0.00000000E+00  0.00000000E+00  0.00000000E+00
  0.00000000E+00  0.00000000E+00  0.00000000E+00
  0.00000000E+00  0.00000000E+00  0.00000000E+00
  0.00000000E+00  0.00000000E+00  0.00000000E+00
  0.00000000E+00  0.00000000E+00  0.00000000E+00
  0.00000000E+00  0.00000000E+00  0.00000000E+00
  0.00000000E+00  0.00000000E+00  0.00000000E+00
  0.00000000E+00  0.00000000E+00  0.00000000E+00
  0.00000000E+00  0.00000000E+00  0.00000000E+00
  0.00000000E+00  0.00000000E+00  0.00000000E+00
  0.00000000E+00  0.00000000E+00  0.00000000E+00
  0.00000000E+00  0.00000000E+00  0.00000000E+00
  0.00000000E+00  0.00000000E+00  0.00000000E+00
  0.00000000E+00  0.00000000E+00  0.00000000E+00
  0.00000000E+00  0.00000000E+00  0.00000000E+00
  0.00000000E+00  0.00000000E+00  0.00000000E+00
