Automatic mesh
0
Gamma
  2  3  1
  0.  0.  0.

