(Li2 Mn15 O30)2  (P1) ~ CONTCAR (VASP)  
   1.00000000000000     
     4.6533974610415720    0.0003461435571476    0.0071364639239738
     0.0002280286620981    2.9437740045116061    0.0004391981247351
     0.0587205089090131    0.0100495489528160   68.2442308352686524
   Mn   O    Li
    30    60     1
Direct
  0.0718210725805481  0.2585135385487194  0.6058419018529866
  0.0790084891881893  0.2557923510919737  0.4712526577314868
  0.9634343737516918  0.7570713802667289  0.0226041725164785
  0.0437148473079295  0.2502700999392637  0.3329340657981544
  0.9682713222192811  0.7536122326483894  0.1601072271672649
  0.0407245622116160  0.2530627390297682  0.1972039907336306
  0.9436533582728279  0.7515219156138443  0.2962014933631716
  0.0393701114542380  0.2560722518517982  0.0599657505891544
  0.9516417482997335  0.7557297374471907  0.4349140588082616
  0.9577836383483701  0.7577777255801419  0.5692987009140664
  0.4681563859652692  0.2602473627334029  0.6737044353376934
  0.4570228919662364  0.2569157434906459  0.5384735026747696
  0.4479518344075970  0.2558150669101733  0.4026156272465089
  0.5392632107439488  0.7550830600847570  0.0914594584485966
  0.4456052557675407  0.2521490234671970  0.2651912222597843
  0.5392866845693099  0.7525631503117066  0.2283907134364971
  0.4700203870228608  0.2543252042098557  0.1287337694221696
  0.5460261607966443  0.7521459189646827  0.3638903712306950
  0.5762280774360329  0.7564120652214500  0.5019936167164397
  0.5702035042475003  0.7595228121170327  0.6368198729449359
  0.9691344292527916  0.7610280794805692  0.7050446261903663
  0.9696659147050755  0.7619077669020348  0.7683172115899011
  0.9693873133539569  0.7618625272167655  0.8318751985619747
  0.9686946570451687  0.7609110445377351  0.8955466813291023
  0.9665939907384838  0.7591837898644501  0.9592184452812096
  0.4679984577458832  0.2615525281043278  0.7366263891869917
  0.4688802280050287  0.2620195962591543  0.8000739212569494
  0.4693977836931889  0.2615072810732604  0.8637015295622839
  0.4689007651018714  0.2601302318116787  0.9273877853777563
  0.4658529360951305  0.2581725349444962  0.9910016660157522
  0.3979909811292410  0.2593355610849332  0.6230778805067370
  0.4107386754197661  0.2563151353467777  0.4878354392914072
  0.6379018506606832  0.7578614552106594  0.0050176212608668
  0.3619857667261902  0.2499245435729733  0.3513414089808339
  0.6641930777854465  0.7540789168377826  0.1409807755872104
  0.3530155688879265  0.2527064988801695  0.2158084351216498
  0.6236006212861512  0.7519639760543456  0.2784617307089982
  0.3445194683579190  0.2553011366864061  0.0793253572555880
  0.6358752064905359  0.7558092364895677  0.4157606879238549
  0.6259209177628177  0.7569628019799683  0.5521457394875935
  0.6480137508587425  0.7602886264377439  0.6866473498446175
  0.1368819243590922  0.2608971022350344  0.6906945411355020
  0.1255786481453707  0.2575838310273528  0.5552936306315523
  0.1126794194040944  0.2557321077460505  0.4193488950046583
  0.8457513273806470  0.7558241181307425  0.0723500333683109
  0.1234403126837441  0.2516846006133662  0.2831393946367522
  0.8528747140976181  0.7529248544992377  0.2099131413471514
  0.1644776289493080  0.2537169599037895  0.1480700911847694
  0.8707105049836081  0.7507233441005173  0.3470179354702365
  0.1498349103071749  0.2572688036745815  0.0099126457022189
  0.9108043501419667  0.7558191326214532  0.4849901000031385
  0.8983052938001445  0.7586198587700126  0.6192618166741841
  0.7348955717729962  0.2595082334243052  0.6516934067965726
  0.7345565159956685  0.2563404559059327  0.5172084735735341
  0.7245767864343774  0.2565977556795734  0.3812392237529841
  0.2918423853554018  0.7545270633089065  0.1145313959046393
  0.7089900161287076  0.2523609216267046  0.2432104882927018
  0.2770798395746541  0.7522751609256731  0.2504861511544547
  0.7170825948402061  0.2548039473148427  0.1058187013077062
  0.2914200866520879  0.7551775490256338  0.3869545212910897
  0.2988079870928672  0.7568630561314651  0.5229974144971674
  0.3033184912914967  0.7601390344118418  0.6584828085997453
  0.7973698120543929  0.2578474672651022  0.5844383809255930
  0.7958747199287077  0.2553720540536245  0.4500866906239334
  0.2151202386858423  0.7562163690209277  0.0455137090350340
  0.7756532571203465  0.2514329644244732  0.3111977446483958
  0.2173299026709343  0.7531442087849253  0.1828828221774976
  0.7906278793174120  0.2534617098371443  0.1745509292325823
  0.2105529626788661  0.7506729369378863  0.3181295471288560
  0.7899133462805852  0.2568078994146960  0.0373164264017505
  0.2359579097603338  0.7557245912624940  0.4555829331905803
  0.2321879730253145  0.7583057656174169  0.5904252289908879
  0.6366115853818942  0.7615165733822429  0.7506888503243253
  0.6373031946587256  0.7618911094369648  0.8142133721498873
  0.6372691820977888  0.7612918607157733  0.8779257331267942
  0.6360300185061493  0.7598412164081050  0.9416724503225161
  0.8013776093668352  0.2610493631152648  0.7190325550534917
  0.8012048886625444  0.2618597495486285  0.7824185328841984
  0.8012881888124862  0.2617280088636912  0.8460661142938316
  0.8011313819270817  0.2606894419975315  0.9098252657041693
  0.8003839929329977  0.2589019884643990  0.9735927604453637
  0.1358442268630292  0.2618551502959768  0.7539588853101905
  0.1369858517069049  0.2619037939063378  0.8176252038312914
  0.1375088448395686  0.2610247688044629  0.8813930413300778
  0.1366241892131897  0.2593620448219671  0.9451401531886384
  0.3036830367678666  0.7614854783274272  0.7221559906920774
  0.3018531523949103  0.7620441607819182  0.7857759676520216
  0.3012982234515621  0.7616172724232831  0.8495051413189854
  0.3005239848609264  0.7603106343661071  0.9132584732922954
  0.2975510364654918  0.7583778120205004  0.9770055408571720
  0.9218471825167199  0.7563095163191856  0.3939085960240835
 
  0.00000000E+00  0.00000000E+00  0.00000000E+00
  0.00000000E+00  0.00000000E+00  0.00000000E+00
  0.00000000E+00  0.00000000E+00  0.00000000E+00
  0.00000000E+00  0.00000000E+00  0.00000000E+00
  0.00000000E+00  0.00000000E+00  0.00000000E+00
  0.00000000E+00  0.00000000E+00  0.00000000E+00
  0.00000000E+00  0.00000000E+00  0.00000000E+00
  0.00000000E+00  0.00000000E+00  0.00000000E+00
  0.00000000E+00  0.00000000E+00  0.00000000E+00
  0.00000000E+00  0.00000000E+00  0.00000000E+00
  0.00000000E+00  0.00000000E+00  0.00000000E+00
  0.00000000E+00  0.00000000E+00  0.00000000E+00
  0.00000000E+00  0.00000000E+00  0.00000000E+00
  0.00000000E+00  0.00000000E+00  0.00000000E+00
  0.00000000E+00  0.00000000E+00  0.00000000E+00
  0.00000000E+00  0.00000000E+00  0.00000000E+00
  0.00000000E+00  0.00000000E+00  0.00000000E+00
  0.00000000E+00  0.00000000E+00  0.00000000E+00
  0.00000000E+00  0.00000000E+00  0.00000000E+00
  0.00000000E+00  0.00000000E+00  0.00000000E+00
  0.00000000E+00  0.00000000E+00  0.00000000E+00
  0.00000000E+00  0.00000000E+00  0.00000000E+00
  0.00000000E+00  0.00000000E+00  0.00000000E+00
  0.00000000E+00  0.00000000E+00  0.00000000E+00
  0.00000000E+00  0.00000000E+00  0.00000000E+00
  0.00000000E+00  0.00000000E+00  0.00000000E+00
  0.00000000E+00  0.00000000E+00  0.00000000E+00
  0.00000000E+00  0.00000000E+00  0.00000000E+00
  0.00000000E+00  0.00000000E+00  0.00000000E+00
  0.00000000E+00  0.00000000E+00  0.00000000E+00
  0.00000000E+00  0.00000000E+00  0.00000000E+00
  0.00000000E+00  0.00000000E+00  0.00000000E+00
  0.00000000E+00  0.00000000E+00  0.00000000E+00
  0.00000000E+00  0.00000000E+00  0.00000000E+00
  0.00000000E+00  0.00000000E+00  0.00000000E+00
  0.00000000E+00  0.00000000E+00  0.00000000E+00
  0.00000000E+00  0.00000000E+00  0.00000000E+00
  0.00000000E+00  0.00000000E+00  0.00000000E+00
  0.00000000E+00  0.00000000E+00  0.00000000E+00
  0.00000000E+00  0.00000000E+00  0.00000000E+00
  0.00000000E+00  0.00000000E+00  0.00000000E+00
  0.00000000E+00  0.00000000E+00  0.00000000E+00
  0.00000000E+00  0.00000000E+00  0.00000000E+00
  0.00000000E+00  0.00000000E+00  0.00000000E+00
  0.00000000E+00  0.00000000E+00  0.00000000E+00
  0.00000000E+00  0.00000000E+00  0.00000000E+00
  0.00000000E+00  0.00000000E+00  0.00000000E+00
  0.00000000E+00  0.00000000E+00  0.00000000E+00
  0.00000000E+00  0.00000000E+00  0.00000000E+00
  0.00000000E+00  0.00000000E+00  0.00000000E+00
  0.00000000E+00  0.00000000E+00  0.00000000E+00
  0.00000000E+00  0.00000000E+00  0.00000000E+00
  0.00000000E+00  0.00000000E+00  0.00000000E+00
  0.00000000E+00  0.00000000E+00  0.00000000E+00
  0.00000000E+00  0.00000000E+00  0.00000000E+00
  0.00000000E+00  0.00000000E+00  0.00000000E+00
  0.00000000E+00  0.00000000E+00  0.00000000E+00
  0.00000000E+00  0.00000000E+00  0.00000000E+00
  0.00000000E+00  0.00000000E+00  0.00000000E+00
  0.00000000E+00  0.00000000E+00  0.00000000E+00
  0.00000000E+00  0.00000000E+00  0.00000000E+00
  0.00000000E+00  0.00000000E+00  0.00000000E+00
  0.00000000E+00  0.00000000E+00  0.00000000E+00
  0.00000000E+00  0.00000000E+00  0.00000000E+00
  0.00000000E+00  0.00000000E+00  0.00000000E+00
  0.00000000E+00  0.00000000E+00  0.00000000E+00
  0.00000000E+00  0.00000000E+00  0.00000000E+00
  0.00000000E+00  0.00000000E+00  0.00000000E+00
  0.00000000E+00  0.00000000E+00  0.00000000E+00
  0.00000000E+00  0.00000000E+00  0.00000000E+00
  0.00000000E+00  0.00000000E+00  0.00000000E+00
  0.00000000E+00  0.00000000E+00  0.00000000E+00
  0.00000000E+00  0.00000000E+00  0.00000000E+00
  0.00000000E+00  0.00000000E+00  0.00000000E+00
  0.00000000E+00  0.00000000E+00  0.00000000E+00
  0.00000000E+00  0.00000000E+00  0.00000000E+00
  0.00000000E+00  0.00000000E+00  0.00000000E+00
  0.00000000E+00  0.00000000E+00  0.00000000E+00
  0.00000000E+00  0.00000000E+00  0.00000000E+00
  0.00000000E+00  0.00000000E+00  0.00000000E+00
  0.00000000E+00  0.00000000E+00  0.00000000E+00
  0.00000000E+00  0.00000000E+00  0.00000000E+00
  0.00000000E+00  0.00000000E+00  0.00000000E+00
  0.00000000E+00  0.00000000E+00  0.00000000E+00
  0.00000000E+00  0.00000000E+00  0.00000000E+00
  0.00000000E+00  0.00000000E+00  0.00000000E+00
  0.00000000E+00  0.00000000E+00  0.00000000E+00
  0.00000000E+00  0.00000000E+00  0.00000000E+00
  0.00000000E+00  0.00000000E+00  0.00000000E+00
  0.00000000E+00  0.00000000E+00  0.00000000E+00
  0.00000000E+00  0.00000000E+00  0.00000000E+00
