Automatic mesh
0
Gamma
  3  9  6
  0.  0.  0.

