Automatic mesh
0
Gamma
  2  6  3
  0.  0.  0.

