(Mn O2)12  (P1) ~ POSCAR_7_P1 0 1 0  surface (#1) (VASP)
    1.0
            18.51040000 0.00000000 0.00000000 
            0.00000000 4.54243000 0.00000000 
            0.00000000 0.00000000 9.16159000 
  12 24
Selective dynamics
Direct
        0.30843202 0.21636809 0.36419834  F F F
        0.30843202 0.78363191 0.86419834  F F F
        0.46168640 0.21636809 0.36419834  F F F
        0.46168640 0.78363191 0.86419834  F F F
        0.61494079 0.21636809 0.36419834  T T T
        0.61494079 0.78363191 0.86419834  T T T
        0.38505921 0.28363191 0.63580166  F F F
        0.38505921 0.71636809 0.13580166  F F F
        0.53831360 0.28363191 0.63580166  F F F
        0.53831360 0.71636809 0.13580166  F F F
        0.69156798 0.28363191 0.63580166  T T T
        0.69156798 0.71636809 0.13580166  T T T
        0.30843202 0.92448532 0.22270815  F F F
        0.30843202 0.07551468 0.72270815  F F F
        0.46168640 0.92448532 0.22270815  F F F
        0.46168640 0.07551468 0.72270815  F F F
        0.61494079 0.92448532 0.22270815  T T T
        0.61494079 0.07551468 0.72270815  T T T
        0.38505921 0.57551468 0.77729185  F F F
        0.38505921 0.42448532 0.27729185  F F F
        0.53831360 0.57551468 0.77729185  F F F
        0.53831360 0.42448532 0.27729185  F F F
        0.69156798 0.57551468 0.77729185  T T T
        0.69156798 0.42448532 0.27729185  T T T
        0.30843202 0.53748031 0.03278414  F F F
        0.30843202 0.46251969 0.53278414  F F F
        0.46168640 0.53748031 0.03278414  F F F
        0.46168640 0.46251969 0.53278414  F F F
        0.61494079 0.53748031 0.03278414  T T T
        0.61494079 0.46251969 0.53278414  T T T
        0.38505921 0.96251969 0.96721586  F F F
        0.38505921 0.03748031 0.46721586  F F F
        0.53831360 0.96251969 0.96721586  F F F
        0.53831360 0.03748031 0.46721586  F F F
        0.69156798 0.96251969 0.96721586  T T T
        0.69156798 0.03748031 0.46721586  T T T

