(Mn O2)16  (P1) ~ POSCAR_9 0 0 1  surfac
   1.00000000000000     
     2.8354800000000000    0.0000000000000000    0.0000000000000000
     0.0000000000000000   48.6561999999999983    0.0000000000000000
     0.1237271200000000    0.0000000000000000    7.2079981699999998
   Mn   O 
    16    32
Selective dynamics
Direct
  0.0000000000000000  0.1027618299999986  0.0000000000000000   F   F   F
  0.0000000000000000  0.5000000000000000  0.0000000000000000   F   F   F
  0.5000000000000000  0.4503452300000035  0.8750000000000000   F   F   F
  0.4972502138825547  0.8485994755220131  0.8787906966351349   T   T   T
  0.0000000000000000  0.4006904599999999  0.7500000000000000   F   F   F
 -0.0011933648485104  0.7974560176487113  0.7519802894109787   T   T   T
  0.5000000000000000  0.3510356900000033  0.6250000000000000   F   F   F
  0.5000463163048133  0.7486673710540557  0.6252253950770689   T   T   T
  0.0000000000000000  0.3013809099999989  0.5000000000000000   F   F   F
  0.0000814893805653  0.6990792784854259  0.5000774613765429   T   T   T
  0.5000000000000000  0.2517261400000024  0.3750000000000000   F   F   F
  0.5002522141904745  0.6494079697741367  0.3716233972804520   T   T   T
  0.0000000000000000  0.2020713699999988  0.2500000000000000   F   F   F
  0.0000000000000000  0.5993095400000001  0.2500000000000000   F   F   F
  0.5000000000000000  0.1524166000000022  0.1250000000000000   F   F   F
  0.5000000000000000  0.5496547699999965  0.1250000000000000   F   F   F
  0.0054577800000004  0.4383412600000014  0.7080651300000014   F   F   F
  0.0022555579888904  0.8354733118250828  0.7119586299678506   T   T   T
  0.9945422199999996  0.4623491999999985  0.0419348699999986   F   F   F
  0.9901010843921016  0.8491911991422076  0.0316247194099107   T   T   T
  0.5054577200000026  0.4879960299999979  0.8330651400000022   F   F   F
  0.5002933081807617  0.8784779672747161  0.7889732493576380   T   T   T
  0.4945422799999974  0.4126944200000011  0.9169348599999978   F   F   F
  0.4924836353644694  0.8063424867190662  0.9084473781416350   T   T   T
  0.0054577800000004  0.3390317100000004  0.4580651300000014   F   F   F
  0.0060055092988263  0.7384944759797709  0.4633122845544239   T   T   T
  0.9945422199999996  0.3630396599999983  0.7919348699999986   F   F   F
  0.9939309107696590  0.7583296609675926  0.7885125985948761   T   T   T
  0.5054577200000026  0.3886864899999978  0.5830651400000022   F   F   F
  0.5049033891731868  0.7878559855657484  0.5855613089201053   T   T   T
  0.4945422799999974  0.3133848800000010  0.6669348599999978   F   F   F
  0.4941400596467507  0.7092897328012999  0.6618891670589704   T   T   T
  0.0054577800000004  0.2397221700000003  0.2080651300000014   F   F   F
  0.0061599600001133  0.6389558676259087  0.2104751814537334   T   T   T
  0.9945422199999996  0.2637301099999974  0.5419348699999986   F   F   F
  0.9943076262726986  0.6595000746542587  0.5344044467506042   T   T   T
  0.5054577200000026  0.2893769499999976  0.3330651400000022   F   F   F
  0.5059780567661990  0.6887687849379756  0.3380119309836454   T   T   T
  0.4945422799999974  0.2140753400000008  0.4169348599999978   F   F   F
  0.4939992780479504  0.6097258699084017  0.4089341134512215   T   T   T
  0.0054577800000004  0.1404126300000001  0.9580651300000014   F   F   F
  0.0054577800000004  0.5376508000000015  0.9580651300000014   F   F   F
  0.9945422199999996  0.1644205699999972  0.2919348699999986   F   F   F
  0.9945422199999996  0.5616587399999986  0.2919348699999986   F   F   F
  0.5054577200000026  0.1900673999999967  0.0830651400000022   F   F   F
  0.5054577200000026  0.5873055799999989  0.0830651400000022   F   F   F
  0.4945422799999974  0.1147657899999999  0.1669348599999978   F   F   F
  0.4945422799999974  0.5120039700000021  0.1669348599999978   F   F   F
 
  0.00000000E+00  0.00000000E+00  0.00000000E+00
  0.00000000E+00  0.00000000E+00  0.00000000E+00
  0.00000000E+00  0.00000000E+00  0.00000000E+00
  0.00000000E+00  0.00000000E+00  0.00000000E+00
  0.00000000E+00  0.00000000E+00  0.00000000E+00
  0.00000000E+00  0.00000000E+00  0.00000000E+00
  0.00000000E+00  0.00000000E+00  0.00000000E+00
  0.00000000E+00  0.00000000E+00  0.00000000E+00
  0.00000000E+00  0.00000000E+00  0.00000000E+00
  0.00000000E+00  0.00000000E+00  0.00000000E+00
  0.00000000E+00  0.00000000E+00  0.00000000E+00
  0.00000000E+00  0.00000000E+00  0.00000000E+00
  0.00000000E+00  0.00000000E+00  0.00000000E+00
  0.00000000E+00  0.00000000E+00  0.00000000E+00
  0.00000000E+00  0.00000000E+00  0.00000000E+00
  0.00000000E+00  0.00000000E+00  0.00000000E+00
  0.00000000E+00  0.00000000E+00  0.00000000E+00
  0.00000000E+00  0.00000000E+00  0.00000000E+00
  0.00000000E+00  0.00000000E+00  0.00000000E+00
  0.00000000E+00  0.00000000E+00  0.00000000E+00
  0.00000000E+00  0.00000000E+00  0.00000000E+00
  0.00000000E+00  0.00000000E+00  0.00000000E+00
  0.00000000E+00  0.00000000E+00  0.00000000E+00
  0.00000000E+00  0.00000000E+00  0.00000000E+00
  0.00000000E+00  0.00000000E+00  0.00000000E+00
  0.00000000E+00  0.00000000E+00  0.00000000E+00
  0.00000000E+00  0.00000000E+00  0.00000000E+00
  0.00000000E+00  0.00000000E+00  0.00000000E+00
  0.00000000E+00  0.00000000E+00  0.00000000E+00
  0.00000000E+00  0.00000000E+00  0.00000000E+00
  0.00000000E+00  0.00000000E+00  0.00000000E+00
  0.00000000E+00  0.00000000E+00  0.00000000E+00
  0.00000000E+00  0.00000000E+00  0.00000000E+00
  0.00000000E+00  0.00000000E+00  0.00000000E+00
  0.00000000E+00  0.00000000E+00  0.00000000E+00
  0.00000000E+00  0.00000000E+00  0.00000000E+00
  0.00000000E+00  0.00000000E+00  0.00000000E+00
  0.00000000E+00  0.00000000E+00  0.00000000E+00
  0.00000000E+00  0.00000000E+00  0.00000000E+00
  0.00000000E+00  0.00000000E+00  0.00000000E+00
  0.00000000E+00  0.00000000E+00  0.00000000E+00
  0.00000000E+00  0.00000000E+00  0.00000000E+00
  0.00000000E+00  0.00000000E+00  0.00000000E+00
  0.00000000E+00  0.00000000E+00  0.00000000E+00
  0.00000000E+00  0.00000000E+00  0.00000000E+00
  0.00000000E+00  0.00000000E+00  0.00000000E+00
  0.00000000E+00  0.00000000E+00  0.00000000E+00
  0.00000000E+00  0.00000000E+00  0.00000000E+00
