(Mn O2)16  (P1) ~ POSCAR_3 1 0 0  surface (#1)_1x1x1_1 (VASP)
    1.0
            9.69459000 0.00000000 0.00000000 
            0.00000000 2.84130000 0.00000000 
            0.00000000 0.00000000 29.39780000 
 H O Mn
  1 33 16
Selective dynamics
Direct
        0.42039900 0.50000000 0.12982300  T T T
        0.36433200 0.50000000 0.15682000  T T T
        0.15587110 0.00000000 0.43220761  T T T
        0.15587110 0.00000000 0.76212686  F F F
        0.65587110 0.50000000 0.26724799  T T T
        0.65587110 0.50000000 0.59716724  F F F
        0.84412890 0.00000000 0.23787314  T T T
        0.84412890 0.00000000 0.56779239  F F F
        0.34412890 0.50000000 0.40283276  T T T
        0.34412890 0.50000000 0.73275201  F F F
        0.79640666 0.00000000 0.44859822  T T T
        0.79640666 0.00000000 0.77851746  F F F
        0.29640666 0.50000000 0.28363859  T T T
        0.29640666 0.50000000 0.61355784  F F F
        0.20359334 0.00000000 0.22148254  T T T
        0.20359334 0.00000000 0.55140178  F F F
        0.70359334 0.50000000 0.38644216  T T T
        0.70359334 0.50000000 0.71636141  F F F
        0.16131429 0.00000000 0.34815601  T T T
        0.16131429 0.00000000 0.67807526  F F F
        0.66131429 0.50000000 0.18319639  T T T
        0.66131429 0.50000000 0.51311563  F F F
        0.83868571 0.00000000 0.32192474  T T T
        0.83868571 0.00000000 0.65184399  F F F
        0.33868571 0.50000000 0.48688437  T T T
        0.33868571 0.50000000 0.81680361  F F F
        0.54140968 0.00000000 0.44517266  T T T
        0.54140968 0.00000000 0.77509190  F F F
        0.04140968 0.50000000 0.28021303  T T T
        0.04140968 0.50000000 0.61013228  F F F
        0.45859032 0.00000000 0.22490810  T T T
        0.45859032 0.00000000 0.55482734  F F F
        0.95859032 0.50000000 0.38986772  T T T
        0.95859032 0.50000000 0.71978697  F F F
        0.34778547 0.00000000 0.44519280  T T T
        0.34778547 0.00000000 0.77511205  F F F
        0.84778547 0.50000000 0.28023318  T T T
        0.84778547 0.50000000 0.61015243  F F F
        0.65221453 0.00000000 0.22488795  T T T
        0.65221453 0.00000000 0.55480720  F F F
        0.15221453 0.50000000 0.38984757  T T T
        0.15221453 0.50000000 0.71976682  F F F
        0.83243150 0.00000000 0.38495773  T T T
        0.83243150 0.00000000 0.71487697  F F F
        0.33243150 0.50000000 0.21999811  T T T
        0.33243150 0.50000000 0.54991735  F F F
        0.16756850 0.00000000 0.28512303  T T T
        0.16756850 0.00000000 0.61504227  F F F
        0.66756850 0.50000000 0.45008265  T T T
        0.66756850 0.50000000 0.78000189  F F F

