(Mn O2)4  (Pnma) ~  (Pearson #541374)_1 (VASP)
    1.0
            9.27000000 0.00000000 0.00000000 
            0.00000000 2.86600000 0.00000000 
            0.00000000 0.00000000 4.53300000 
  4 8
Direct
        0.13600000 0.25000000 0.02200000
        0.63600000 0.25000000 0.47800000
        0.86400000 0.75000000 0.97800000
        0.36400000 0.75000000 0.52200000
        0.27500000 0.25000000 0.33300000
        0.77500000 0.25000000 0.16700000
        0.72500000 0.75000000 0.66700000
        0.22500000 0.75000000 0.83300000
        0.46700000 0.25000000 0.71100000
        0.96700000 0.25000000 0.78900000
        0.53300000 0.75000000 0.28900000
        0.03300000 0.75000000 0.21100000

