con0.6
 0 
Gamma point shift
 6 4 2
 0 0 0 
