                                        
   1.00000000000000     
     0.0000000000000000    2.8359849573271370    0.0000000000000000
     0.0000000000000000    0.0000000000000000    5.1394168601507104
    10.5605047050096204    0.0000000000000000    0.0000000000000000
   Mn   O    Li
     4     8     4
Direct
  0.2500000000000000  0.0486992345097413  0.1355007229811787
  0.2500000000000000  0.4513007654902588  0.6355007229811785
  0.7500000000000000  0.9513007654902584  0.8644992770188215
  0.7500000000000000  0.5486992345097416  0.3644992770188216
  0.2500000000000000  0.3248327049617068  0.3013881774803139
  0.2500000000000000  0.1751672950382933  0.8013881774803138
  0.7500000000000000  0.6751672950382934  0.6986118225196862
  0.7500000000000000  0.8248327049617066  0.1986118225196860
  0.2500000000000000  0.7523907525409458  0.4442729806263030
  0.2500000000000000  0.7476092474590542  0.9442729806263030
  0.7500000000000000  0.2476092474590543  0.5557270193736970
  0.7500000000000000  0.2523907525409458  0.0557270193736971
  0.2500000000000000  0.5461539687176264  0.1085246885479974
  0.2500000000000000  0.9538460312823807  0.6085246885479975
  0.7500000000000000  0.4538460312823729  0.8914753114520025
  0.7500000000000000  0.0461539687176199  0.3914753114520026
 
  0.00000000E+00  0.00000000E+00  0.00000000E+00
  0.00000000E+00  0.00000000E+00  0.00000000E+00
  0.00000000E+00  0.00000000E+00  0.00000000E+00
  0.00000000E+00  0.00000000E+00  0.00000000E+00
  0.00000000E+00  0.00000000E+00  0.00000000E+00
  0.00000000E+00  0.00000000E+00  0.00000000E+00
  0.00000000E+00  0.00000000E+00  0.00000000E+00
  0.00000000E+00  0.00000000E+00  0.00000000E+00
  0.00000000E+00  0.00000000E+00  0.00000000E+00
  0.00000000E+00  0.00000000E+00  0.00000000E+00
  0.00000000E+00  0.00000000E+00  0.00000000E+00
  0.00000000E+00  0.00000000E+00  0.00000000E+00
  0.00000000E+00  0.00000000E+00  0.00000000E+00
  0.00000000E+00  0.00000000E+00  0.00000000E+00
  0.00000000E+00  0.00000000E+00  0.00000000E+00
  0.00000000E+00  0.00000000E+00  0.00000000E+00
