    NPAR = 8
  SYSTEM = (Mn O2)12  (P1) ~ POSCAR_5_P1 1 1 0  surface (#1) (VASP)
    PREC = Normal
   ENCUT = 520.000
  IBRION = -1
     NSW = 0
    ISIF = 2
  NELMIN = 2
 VOSKOWN = 1
  NBLOCK = 1
    NELM = 60
    ALGO = Normal (blocked Davidson)
     GGA = PS
   ISPIN = 2
  MAGMOM = 24*0 3*4 3*-4 3*4 3*-4
  INIWAV = 1
  ISTART = 0
  ICHARG = 2
   LWAVE = .FALSE.
  LCHARG = .TRUE.
 ADDGRID = .FALSE.
  ISMEAR = -5
   SIGMA = 0.2
   LREAL = .FALSE.
  NWRITE = 1
  LAECHG = .TRUE.
