(Mn O2)12  (P1) ~ POSCAR_5_P1 1 1 0  sur
   1.00000000000000     
     2.8411100000000000    0.0000000000000000    0.0000000000000000
     0.0000000000000000    6.1919199999999996    0.0000000000000000
     0.0000000000000000    0.0000000000000000   28.5757599999999989
   O    Mn
    24    12
Selective dynamics
Direct
  0.0000000000000000  0.5000000000000000  0.2407090299999979   F   F   F
  0.0000000000000000  0.5000000000000000  0.4573933799999992   F   F   F
 -0.0000000000000000  0.5000000000000000  0.6733054277249155   T   T   T
  0.5000000000000000  0.3033701000000022  0.1749734699999976   F   F   F
  0.5000000000000000  0.6966298999999978  0.1749734699999976   F   F   F
  0.5000000000000000  0.3033701000000022  0.3916578199999989   F   F   F
  0.5000000000000000  0.6966298999999978  0.3916578199999989   F   F   F
  0.5000000000000000  0.3038576510814582  0.6083621085945149   T   T   T
  0.5000000000000000  0.6961423489185418  0.6083621085945149   T   T   T
  0.0000000000000000  0.5000000000000000  0.3259222699999995   F   F   F
  0.0000000000000000  0.5000000000000000  0.5425406018301715   T   T   T
 -0.0000000000000000  0.5000000000000000  0.7565092745292086   T   T   T
  0.0000000000000000  0.0000000000000000  0.3490511999999981   F   F   F
 -0.0000000000000000  0.0000000000000000  0.5652422536344701   T   T   T
  0.0000000000000000  0.0000000000000000  0.7801806791774274   T   T   T
  0.5000000000000000  0.8033701000000022  0.2833156499999987   F   F   F
  0.5000000000000000  0.1966298999999978  0.2833156499999987   F   F   F
  0.5000000000000000  0.8033758639261447  0.4999079132727905   T   T   T
  0.5000000000000000  0.1966241360738553  0.4999079132727905   T   T   T
  0.5000000000000000  0.8094352529880992  0.7152776963524862   T   T   T
  0.5000000000000000  0.1905647470119009  0.7152776963524862   T   T   T
  0.0000000000000000  0.0000000000000000  0.2175800999999993   F   F   F
  0.0000000000000000  0.0000000000000000  0.4342644500000006   F   F   F
  0.0000000000000000  0.0000000000000000  0.6501485489545751   T   T   T
  0.5000000000000000  0.5000000000000000  0.2833156499999987   F   F   F
  0.5000000000000000  0.5000000000000000  0.4999069965002667   T   T   T
  0.5000000000000000  0.5000000000000000  0.7169918380944670   T   T   T
  0.0000000000000000  0.5000000000000000  0.1749734699999976   F   F   F
  0.0000000000000000  0.5000000000000000  0.3916578199999989   F   F   F
 -0.0000000000000000  0.5000000000000000  0.6083721584884046   T   T   T
  0.5000000000000000  0.0000000000000000  0.1749734699999976   F   F   F
  0.5000000000000000  0.0000000000000000  0.3916578199999989   F   F   F
  0.5000000000000000  0.0000000000000000  0.6091992905516007   T   T   T
  0.0000000000000000  0.0000000000000000  0.2833156499999987   F   F   F
 -0.0000000000000000  0.0000000000000000  0.5006191818107741   T   T   T
  0.0000000000000000  0.0000000000000000  0.7253083672254975   T   T   T
 
  0.00000000E+00  0.00000000E+00  0.00000000E+00
  0.00000000E+00  0.00000000E+00  0.00000000E+00
  0.00000000E+00  0.00000000E+00  0.00000000E+00
  0.00000000E+00  0.00000000E+00  0.00000000E+00
  0.00000000E+00  0.00000000E+00  0.00000000E+00
  0.00000000E+00  0.00000000E+00  0.00000000E+00
  0.00000000E+00  0.00000000E+00  0.00000000E+00
  0.00000000E+00  0.00000000E+00  0.00000000E+00
  0.00000000E+00  0.00000000E+00  0.00000000E+00
  0.00000000E+00  0.00000000E+00  0.00000000E+00
  0.00000000E+00  0.00000000E+00  0.00000000E+00
  0.00000000E+00  0.00000000E+00  0.00000000E+00
  0.00000000E+00  0.00000000E+00  0.00000000E+00
  0.00000000E+00  0.00000000E+00  0.00000000E+00
  0.00000000E+00  0.00000000E+00  0.00000000E+00
  0.00000000E+00  0.00000000E+00  0.00000000E+00
  0.00000000E+00  0.00000000E+00  0.00000000E+00
  0.00000000E+00  0.00000000E+00  0.00000000E+00
  0.00000000E+00  0.00000000E+00  0.00000000E+00
  0.00000000E+00  0.00000000E+00  0.00000000E+00
  0.00000000E+00  0.00000000E+00  0.00000000E+00
  0.00000000E+00  0.00000000E+00  0.00000000E+00
  0.00000000E+00  0.00000000E+00  0.00000000E+00
  0.00000000E+00  0.00000000E+00  0.00000000E+00
  0.00000000E+00  0.00000000E+00  0.00000000E+00
  0.00000000E+00  0.00000000E+00  0.00000000E+00
  0.00000000E+00  0.00000000E+00  0.00000000E+00
  0.00000000E+00  0.00000000E+00  0.00000000E+00
  0.00000000E+00  0.00000000E+00  0.00000000E+00
  0.00000000E+00  0.00000000E+00  0.00000000E+00
  0.00000000E+00  0.00000000E+00  0.00000000E+00
  0.00000000E+00  0.00000000E+00  0.00000000E+00
  0.00000000E+00  0.00000000E+00  0.00000000E+00
  0.00000000E+00  0.00000000E+00  0.00000000E+00
  0.00000000E+00  0.00000000E+00  0.00000000E+00
  0.00000000E+00  0.00000000E+00  0.00000000E+00
