(Mn O2)4  (Pnma) ~  (Pearson #541374)_1 
   1.00000000000000     
     9.2276240584910560    0.0000000000000000    0.0000000000000000
     0.0000000000000000    2.8805238810026021    0.0000000000000000
     0.0000000000000000   -0.0000000000000000    4.5681219791637053
   Mn   O 
     4     8
Direct
  0.1352714869704720  0.2500000000000000  0.0326788981620594
  0.6352714869704721  0.2500000000000000  0.4673211018379406
  0.8647285130295279  0.7500000000000000  0.9673211018379406
  0.3647285130295280  0.7500000000000000  0.5326788981620594
  0.2782331023960387  0.2500000000000000  0.3285789812644088
  0.7782331023960386  0.2500000000000000  0.1714210187355913
  0.7217668976039614  0.7500000000000000  0.6714210187355913
  0.2217668976039613  0.7500000000000000  0.8285789812644087
  0.4668612644029596  0.2500000000000000  0.7137767702018233
  0.9668612644029593  0.2500000000000000  0.7862232297981767
  0.5331387355970407  0.7500000000000000  0.2862232297981767
  0.0331387355970405  0.7500000000000000  0.2137767702018233
 
  0.00000000E+00  0.00000000E+00  0.00000000E+00
  0.00000000E+00  0.00000000E+00  0.00000000E+00
  0.00000000E+00  0.00000000E+00  0.00000000E+00
  0.00000000E+00  0.00000000E+00  0.00000000E+00
  0.00000000E+00  0.00000000E+00  0.00000000E+00
  0.00000000E+00  0.00000000E+00  0.00000000E+00
  0.00000000E+00  0.00000000E+00  0.00000000E+00
  0.00000000E+00  0.00000000E+00  0.00000000E+00
  0.00000000E+00  0.00000000E+00  0.00000000E+00
  0.00000000E+00  0.00000000E+00  0.00000000E+00
  0.00000000E+00  0.00000000E+00  0.00000000E+00
  0.00000000E+00  0.00000000E+00  0.00000000E+00
