Mn12 O25 H  (P1) ~ POSCAR (VASP)
    1.0
            2.86999989 0.00000000 0.00000000 
            0.00000000 6.25082016 0.00000000 
            0.00000000 0.00000000 28.75246048 
  25 12 1
Selective dynamics
Direct
        0.00000000 0.50000000 0.34799520  T T T
        0.00000000 0.50000000 0.56625954  F F F
        0.00000000 0.50000000 0.78366076  F F F
        0.50000000 0.79669797 0.14830040  T T T
        0.50000000 0.20330204 0.14830040  T T T
        0.50000000 0.80478003 0.39129939  F F F
        0.50000000 0.19521999 0.39129939  F F F
        0.50000000 0.80478003 0.60870061  F F F
        0.50000000 0.19521999 0.60870061  F F F
        0.00000000 0.50000000 0.21399965  T T T
        0.00000000 0.50000000 0.43374043  F F F
        0.00000000 0.50000000 0.65114169  F F F
        0.00000000 0.00000000 0.23298401  T T T
        0.00000000 0.00000000 0.45755892  F F F
        0.00000000 0.00000000 0.67496015  F F F
        0.50000000 0.30358565 0.27973219  T T T
        0.50000000 0.69641435 0.27973219  T T T
        0.50000000 0.30478001 0.50000000  F F F
        0.50000000 0.69521997 0.50000000  F F F
        0.50000000 0.30478001 0.71740123  F F F
        0.50000000 0.69521997 0.71740123  F F F
        0.00000000 0.00000000 0.32210182  T T T
        0.00000000 0.00000000 0.54244108  F F F
        0.00000000 0.00000000 0.75984230  F F F
        0.50000000 0.50000000 0.12100010  T T T
        0.00000000 0.50000000 0.28178492  T T T
        0.00000000 0.50000000 0.50000000  F F F
        0.00000000 0.50000000 0.71740123  F F F
        0.50000000 0.50000000 0.17349385  T T T
        0.50000000 0.50000000 0.39129939  F F F
        0.50000000 0.50000000 0.60870061  F F F
        0.00000000 0.00000000 0.15751265  T T T
        0.00000000 0.00000000 0.39129939  F F F
        0.00000000 0.00000000 0.60870061  F F F
        0.50000000 0.00000000 0.27706799  T T T
        0.50000000 0.00000000 0.50000000  F F F
        0.50000000 0.00000000 0.71740123  F F F
        0.45000001 0.45000000 0.09102100  T T T

