(Mn21 O44)4  (P1) ~ CONTCAR (VASP)
    1.0
            14.28838539 0.00000000 0.00000000 
            0.00000000 40.09339905 0.00000000 
            2.40247140 0.00000000 9.85953533 
  84 176
Selective dynamics
Direct
        0.45454547 0.39764786 0.18181819  F F F
        0.45454547 0.39764786 0.68181819  F F F
        0.95454550 0.39764786 0.18181819  F F F
        0.95454550 0.39764786 0.68181819  F F F
        0.15909091 0.29529572 0.36363637  F F F
        0.15909091 0.29529572 0.86363637  F F F
        0.65909088 0.29529572 0.36363637  F F F
        0.65909088 0.29529572 0.86363637  F F F
        0.22727270 0.26117834 0.09090911  F F F
        0.22727270 0.26117834 0.59090912  F F F
        0.72727269 0.26117834 0.09090911  F F F
        0.72727269 0.26117834 0.59090912  F F F
        0.36363637 0.19294357 0.04545455  F F F
        0.36363637 0.19294357 0.54545456  F F F
        0.86363637 0.19294357 0.04545455  F F F
        0.86363637 0.19294357 0.54545456  F F F
        0.06818181 0.84117383 0.22727273  T T T
        0.06818181 0.84117383 0.72727275  T T T
        0.56818181 0.84117383 0.22727273  T T T
        0.56818181 0.84117383 0.72727275  T T T
        0.13636361 0.80705643 0.45454547  T T T
        0.13636361 0.80705643 0.95454550  T T T
        0.63636363 0.80705643 0.45454547  T T T
        0.63636363 0.80705643 0.95454550  T T T
        0.27272728 0.73882169 0.40909091  T T T
        0.27272728 0.73882169 0.90909088  T T T
        0.77272725 0.73882169 0.40909091  T T T
        0.77272725 0.73882169 0.90909088  T T T
        0.47727272 0.63646954 0.09090909  F F F
        0.47727272 0.63646954 0.59090912  F F F
        0.97727275 0.63646954 0.09090909  F F F
        0.97727275 0.63646954 0.59090912  F F F
        0.04545452 0.60235214 0.31818184  F F F
        0.04545452 0.60235214 0.81818187  F F F
        0.54545450 0.60235214 0.31818184  F F F
        0.54545450 0.60235214 0.81818187  F F F
        0.38636363 0.43176523 0.45454547  F F F
        0.38636363 0.43176523 0.95454550  F F F
        0.88636363 0.43176523 0.45454547  F F F
        0.88636363 0.43176523 0.95454550  F F F
        0.09090908 0.32941309 0.13636364  F F F
        0.09090908 0.32941309 0.63636363  F F F
        0.59090906 0.32941309 0.13636364  F F F
        0.59090906 0.32941309 0.63636363  F F F
        0.29545453 0.22706094 0.31818181  F F F
        0.29545453 0.22706094 0.81818181  F F F
        0.79545450 0.22706094 0.31818181  F F F
        0.79545450 0.22706094 0.81818181  F F F
        0.20454545 0.77293903 0.18181819  T T T
        0.20454545 0.77293903 0.68181819  T T T
        0.70454544 0.77293903 0.18181819  T T T
        0.70454544 0.77293903 0.68181819  T T T
        0.40909091 0.67058688 0.36363637  F F F
        0.40909091 0.67058688 0.86363637  F F F
        0.90909088 0.67058688 0.36363637  F F F
        0.90909088 0.67058688 0.86363637  F F F
        0.31818181 0.46588263 0.22727272  F F F
        0.31818181 0.46588263 0.72727275  F F F
        0.81818181 0.46588263 0.22727272  F F F
        0.81818181 0.46588263 0.72727275  F F F
        0.02272726 0.36353046 0.40909091  F F F
        0.02272726 0.36353046 0.90909088  F F F
        0.52272725 0.36353046 0.40909091  F F F
        0.52272725 0.36353046 0.90909088  F F F
        0.43181819 0.15882619 0.27272728  F F F
        0.43181819 0.15882619 0.77272725  F F F
        0.93181819 0.15882619 0.27272728  F F F
        0.93181819 0.15882619 0.77272725  F F F
        0.34090909 0.70470429 0.13636364  F F F
        0.34090909 0.70470429 0.63636363  F F F
        0.84090912 0.70470429 0.13636364  F F F
        0.84090912 0.70470429 0.63636363  F F F
        0.11363635 0.56823474 0.04545455  F F F
        0.11363635 0.56823474 0.54545456  F F F
        0.61363637 0.56823474 0.04545455  F F F
        0.61363637 0.56823474 0.54545456  F F F
        0.18181816 0.53411740 0.27272728  F F F
        0.18181816 0.53411740 0.77272725  F F F
        0.68181813 0.53411740 0.27272728  F F F
        0.68181813 0.53411740 0.77272725  F F F
        0.24999999 0.50000000 0.00000000  F F F
        0.24999999 0.50000000 0.50000000  F F F
        0.75000000 0.50000000 0.00000000  F F F
        0.75000000 0.50000000 0.50000000  F F F
        0.14627199 0.33980170 0.28457600  F F F
        0.14627199 0.33980170 0.78457600  F F F
        0.64627200 0.33980170 0.28457600  F F F
        0.64627200 0.33980170 0.78457600  F F F
        0.17190982 0.25078973 0.44269672  F F F
        0.17190982 0.25078973 0.94269669  F F F
        0.67190981 0.25078973 0.44269672  F F F
        0.67190981 0.25078973 0.94269669  F F F
        0.35081747 0.23744956 0.46639419  F F F
        0.35081747 0.23744956 0.96639419  F F F
        0.85081744 0.23744956 0.46639419  F F F
        0.85081744 0.23744956 0.96639419  F F F
        0.46736437 0.35314187 0.26087853  F F F
        0.46736437 0.35314187 0.76087856  F F F
        0.96736437 0.35314187 0.26087853  F F F
        0.96736437 0.35314187 0.76087856  F F F
        0.41899926 0.20333217 0.19366692  F F F
        0.41899926 0.20333217 0.69366693  F F F
        0.91899926 0.20333217 0.19366692  F F F
        0.91899926 0.20333217 0.69366693  F F F
        0.03554621 0.31902450 0.48815128  F F F
        0.03554621 0.31902450 0.98815131  F F F
        0.53554618 0.31902450 0.48815128  F F F
        0.53554618 0.31902450 0.98815131  F F F
        0.05536290 0.13509741 0.14821237  F F F
        0.05536290 0.13509741 0.64821237  F F F
        0.55536288 0.13509741 0.14821237  F F F
        0.55536288 0.13509741 0.64821237  F F F
        0.08100074 0.79666781 0.30633309  T T T
        0.08100074 0.79666781 0.80633307  T T T
        0.58100074 0.79666781 0.30633309  T T T
        0.58100074 0.79666781 0.80633307  T T T
        0.25990838 0.78332764 0.33003053  T T T
        0.25990838 0.78332764 0.83003056  T T T
        0.75990838 0.78332764 0.33003053  T T T
        0.75990838 0.78332764 0.83003056  T T T
        0.37645528 0.14843757 0.12451491  F F F
        0.37645528 0.14843757 0.62451494  F F F
        0.87645531 0.14843757 0.12451491  F F F
        0.87645531 0.14843757 0.62451494  F F F
        0.32809016 0.74921030 0.05730329  T T T
        0.32809016 0.74921030 0.55730331  T T T
        0.82809019 0.74921030 0.05730329  T T T
        0.82809019 0.74921030 0.55730331  T T T
        0.44463712 0.86490262 0.35178763  T T T
        0.44463712 0.86490262 0.85178763  T T T
        0.94463712 0.86490262 0.35178763  T T T
        0.94463712 0.86490262 0.85178763  T T T
        0.46445382 0.68097550 0.01184873  F F F
        0.46445382 0.68097550 0.51184875  F F F
        0.96445382 0.68097550 0.01184873  F F F
        0.96445382 0.68097550 0.51184875  F F F
        0.49009165 0.59196353 0.16996945  F F F
        0.49009165 0.59196353 0.66996944  F F F
        0.99009168 0.59196353 0.16996945  F F F
        0.99009168 0.59196353 0.66996944  F F F
        0.16899928 0.57862335 0.19366691  F F F
        0.16899928 0.57862335 0.69366693  F F F
        0.66899931 0.57862335 0.19366691  F F F
        0.66899931 0.57862335 0.69366693  F F F
        0.28554618 0.69431567 0.48815128  F F F
        0.28554618 0.69431567 0.98815131  F F F
        0.78554618 0.69431567 0.48815128  F F F
        0.78554618 0.69431567 0.98815131  F F F
        0.23718105 0.54450595 0.42093965  F F F
        0.23718105 0.54450595 0.92093968  F F F
        0.73718107 0.54450595 0.42093965  F F F
        0.73718107 0.54450595 0.92093968  F F F
        0.35372803 0.66019833 0.21542400  F F F
        0.35372803 0.66019833 0.71542400  F F F
        0.85372806 0.66019833 0.21542400  F F F
        0.85372806 0.66019833 0.71542400  F F F
        0.07809017 0.37391907 0.05730328  F F F
        0.07809017 0.37391907 0.55730325  F F F
        0.57809019 0.37391907 0.05730328  F F F
        0.57809019 0.37391907 0.55730325  F F F
        0.10372802 0.28490710 0.21542400  F F F
        0.10372802 0.28490710 0.71542400  F F F
        0.60372800 0.28490710 0.21542400  F F F
        0.60372800 0.28490710 0.71542400  F F F
        0.28263566 0.27156693 0.23912145  F F F
        0.28263566 0.27156693 0.73912144  F F F
        0.78263569 0.27156693 0.23912145  F F F
        0.78263569 0.27156693 0.73912144  F F F
        0.39918256 0.38725924 0.03360581  F F F
        0.39918256 0.38725924 0.53360581  F F F
        0.89918256 0.38725924 0.03360581  F F F
        0.89918256 0.38725924 0.53360581  F F F
        0.48718107 0.16921479 0.42093965  F F F
        0.48718107 0.16921479 0.92093968  F F F
        0.98718107 0.16921479 0.42093965  F F F
        0.98718107 0.16921479 0.92093968  F F F
        0.01281892 0.83078522 0.07906036  T T T
        0.01281892 0.83078522 0.57906038  T T T
        0.51281893 0.83078522 0.07906036  T T T
        0.51281893 0.83078522 0.57906038  T T T
        0.19172655 0.81744504 0.10275781  T T T
        0.19172655 0.81744504 0.60275781  T T T
        0.69172656 0.81744504 0.10275781  T T T
        0.69172656 0.81744504 0.60275781  T T T
        0.30827346 0.18255496 0.39724219  F F F
        0.30827346 0.18255496 0.89724219  F F F
        0.80827344 0.18255496 0.39724219  F F F
        0.80827344 0.18255496 0.89724219  F F F
        0.39627197 0.71509290 0.28457600  T T T
        0.39627197 0.71509290 0.78457600  T T T
        0.89627194 0.71509290 0.28457600  T T T
        0.89627194 0.71509290 0.78457600  T T T
        0.42190984 0.62608093 0.44269672  F F F
        0.42190984 0.62608093 0.94269669  F F F
        0.92190981 0.62608093 0.44269672  F F F
        0.92190981 0.62608093 0.94269669  F F F
        0.10081746 0.61274076 0.46639419  F F F
        0.10081746 0.61274076 0.96639419  F F F
        0.60081744 0.61274076 0.46639419  F F F
        0.60081744 0.61274076 0.96639419  F F F
        0.21736439 0.72843307 0.26087853  T T T
        0.21736439 0.72843307 0.76087856  T T T
        0.71736437 0.72843307 0.26087853  T T T
        0.71736437 0.72843307 0.76087856  T T T
        0.00990835 0.40803647 0.33003056  F F F
        0.00990835 0.40803647 0.83003056  F F F
        0.50990838 0.40803647 0.33003056  F F F
        0.50990838 0.40803647 0.83003056  F F F
        0.21445383 0.30568433 0.01184872  F F F
        0.21445383 0.30568433 0.51184875  F F F
        0.71445382 0.30568433 0.01184872  F F F
        0.71445382 0.30568433 0.51184875  F F F
        0.33100074 0.42137662 0.30633309  F F F
        0.33100074 0.42137662 0.80633307  F F F
        0.83100074 0.42137662 0.30633309  F F F
        0.83100074 0.42137662 0.80633307  F F F
        0.12354474 0.85156244 0.37548509  T T T
        0.12354474 0.85156244 0.87548506  T T T
        0.62354475 0.85156244 0.37548509  T T T
        0.62354475 0.85156244 0.87548506  T T T
        0.24009165 0.21667235 0.16996945  F F F
        0.24009165 0.21667235 0.66996944  F F F
        0.74009168 0.21667235 0.16996945  F F F
        0.74009168 0.21667235 0.66996944  F F F
        0.03263565 0.64685816 0.23912145  F F F
        0.03263565 0.64685816 0.73912144  F F F
        0.53263563 0.64685816 0.23912145  F F F
        0.53263563 0.64685816 0.73912144  F F F
        0.14918256 0.76255047 0.03360581  T T T
        0.14918256 0.76255047 0.53360581  T T T
        0.64918256 0.76255047 0.03360581  T T T
        0.64918256 0.76255047 0.53360581  T T T
        0.12645529 0.52372879 0.12451491  F F F
        0.12645529 0.52372879 0.62451494  F F F
        0.62645531 0.52372879 0.12451491  F F F
        0.62645531 0.52372879 0.62451494  F F F
        0.30536291 0.51038861 0.14821236  F F F
        0.30536291 0.51038861 0.64821237  F F F
        0.80536294 0.51038861 0.14821236  F F F
        0.80536294 0.51038861 0.64821237  F F F
        0.37354469 0.47627121 0.37548509  F F F
        0.37354469 0.47627121 0.87548506  F F F
        0.87354469 0.47627121 0.37548509  F F F
        0.87354469 0.47627121 0.87548506  F F F
        0.05827347 0.55784619 0.39724219  F F F
        0.05827347 0.55784619 0.89724219  F F F
        0.55827349 0.55784619 0.39724219  F F F
        0.55827349 0.55784619 0.89724219  F F F
        0.26281893 0.45549402 0.07906036  F F F
        0.26281893 0.45549402 0.57906038  F F F
        0.76281893 0.45549402 0.07906036  F F F
        0.76281893 0.45549402 0.57906038  F F F
        0.44172657 0.44215384 0.10275781  F F F
        0.44172657 0.44215384 0.60275781  F F F
        0.94172656 0.44215384 0.10275781  F F F
        0.94172656 0.44215384 0.60275781  F F F
        0.19463711 0.48961139 0.35178763  F F F
        0.19463711 0.48961139 0.85178763  F F F
        0.69463712 0.48961139 0.35178763  F F F
        0.69463712 0.48961139 0.85178763  F F F

