(Mn O2)4  (P1) ~ POSCAR_1 (VASP)        
   1.00000000000000     
     5.7426646804897201    0.1200565268466235   -0.0317347098023033
    -2.9735415558420346    4.9141818850217440    0.0079848585846697
    -1.4807384037659570    0.7030155615814611    7.0272514749470449
   Mn   O 
     4     8
Direct
  0.0000000000000000  0.0000000000000000  0.0000000000000000
  0.0000000000000000  0.5000000000000000  0.0000000000000000
  0.5000000000000000  0.0000000000000000  0.0000000000000000
  0.5000000000000000  0.5000000000000000  0.0000000000000000
  0.1921390511029415  0.8132846647829766  0.1362995913242315
  0.8078609488970585  0.1867153352170234  0.8637004186757693
  0.1921390511029415  0.3132846047829716  0.1362995913242315
  0.8078609488970585  0.6867153952170284  0.8637004186757693
  0.6921390511029415  0.8132846647829766  0.1362995913242315
  0.3078609488970585  0.1867153352170234  0.8637004186757693
  0.6921390511029415  0.3132846047829716  0.1362995913242315
  0.3078609488970585  0.6867153952170284  0.8637004186757693
 
  0.00000000E+00  0.00000000E+00  0.00000000E+00
  0.00000000E+00  0.00000000E+00  0.00000000E+00
  0.00000000E+00  0.00000000E+00  0.00000000E+00
  0.00000000E+00  0.00000000E+00  0.00000000E+00
  0.00000000E+00  0.00000000E+00  0.00000000E+00
  0.00000000E+00  0.00000000E+00  0.00000000E+00
  0.00000000E+00  0.00000000E+00  0.00000000E+00
  0.00000000E+00  0.00000000E+00  0.00000000E+00
  0.00000000E+00  0.00000000E+00  0.00000000E+00
  0.00000000E+00  0.00000000E+00  0.00000000E+00
  0.00000000E+00  0.00000000E+00  0.00000000E+00
  0.00000000E+00  0.00000000E+00  0.00000000E+00
