(Mn O2)12  (P1) ~ alpha (VASP)
    1.0
            10.30800000 0.00000000 0.00000000 
            0.00000000 2.85400000 0.00000000 
            0.00000000 0.00000000 30.61600000 
  24 12
Selective dynamics
Direct
        0.79690000 0.00000000 0.44777989  F F F
        0.20310000 0.00000000 0.55222011  F F F
        0.20310000 0.00000000 0.21553341  T T T
        0.84490000 0.00000000 0.23169437  T T T
        0.84490000 0.00000000 0.56838107  F F F
        0.15510000 0.00000000 0.43161893  F F F
        0.29690000 0.50000000 0.27943654  T T T
        0.29690000 0.50000000 0.61612324  F F F
        0.70310000 0.50000000 0.38387676  F F F
        0.34490000 0.50000000 0.40003772  F F F
        0.65510000 0.50000000 0.59996228  F F F
        0.65510000 0.50000000 0.26327558  T T T
        0.54120000 0.00000000 0.44441303  F F F
        0.45880000 0.00000000 0.55558697  F F F
        0.45880000 0.00000000 0.21890027  T T T
        0.83490000 0.00000000 0.31778516  T T T
        0.16510000 0.00000000 0.68221484  F F F
        0.83490000 0.00000000 0.65447186  F F F
        0.16510000 0.00000000 0.34552814  T T T
        0.04120000 0.50000000 0.27606968  T T T
        0.04120000 0.50000000 0.61275638  F F F
        0.95880000 0.50000000 0.38724362  F F F
        0.33490000 0.50000000 0.48612851  F F F
        0.66510000 0.50000000 0.51387149  F F F
        0.83470000 0.00000000 0.38293403  F F F
        0.16530000 0.00000000 0.61706597  F F F
        0.16530000 0.00000000 0.28037927  T T T
        0.65230000 0.00000000 0.21896761  T T T
        0.65230000 0.00000000 0.55565431  F F F
        0.34770000 0.00000000 0.44434569  F F F
        0.33470000 0.50000000 0.21459068  T T T
        0.33470000 0.50000000 0.55127738  F F F
        0.66530000 0.50000000 0.44872262  F F F
        0.15230000 0.50000000 0.38731096  F F F
        0.84770000 0.50000000 0.61268904  F F F
        0.84770000 0.50000000 0.27600234  T T T

