Mn12 O26 H  (P1) ~ POSCAR (VASP)
    1.0
            2.86999989 0.00000000 0.00000000 
            0.00000000 6.25082016 0.00000000 
            0.00000000 0.00000000 28.75246048 
  26 12 1
Selective dynamics
Direct
        0.00000000 0.50000000 0.34764862  T T T
        0.00000000 0.50000000 0.56625954  F F F
        0.00000000 0.50000000 0.78366076  F F F
        0.50000000 0.80309186 0.15646052  T T T
        0.50000000 0.19690816 0.15646052  T T T
        0.50000000 0.80478003 0.39129939  F F F
        0.50000000 0.19521999 0.39129939  F F F
        0.50000000 0.80478003 0.60870061  F F F
        0.50000000 0.19521999 0.60870061  F F F
        0.00000000 0.50000000 0.20978814  T T T
        0.00000000 0.50000000 0.43374043  F F F
        0.00000000 0.50000000 0.65114169  F F F
        0.00000000 0.00000000 0.23545983  T T T
        0.00000000 0.00000000 0.45755892  F F F
        0.00000000 0.00000000 0.67496015  F F F
        0.50000000 0.30385873 0.27834486  T T T
        0.50000000 0.69614133 0.27834486  T T T
        0.50000000 0.30478001 0.50000000  F F F
        0.50000000 0.69521997 0.50000000  F F F
        0.50000000 0.30478001 0.71740123  F F F
        0.50000000 0.69521997 0.71740123  F F F
        0.00000000 0.00000000 0.32358279  T T T
        0.00000000 0.00000000 0.54244108  F F F
        0.00000000 0.00000000 0.75984230  F F F
        0.50000000 0.50000000 0.10490531  T T T
        0.40500000 0.40499999 0.06810490  T T T
        0.00000000 0.50000000 0.27819404  T T T
        0.00000000 0.50000000 0.50000000  F F F
        0.00000000 0.50000000 0.71740123  F F F
        0.50000000 0.50000000 0.16622970  T T T
        0.50000000 0.50000000 0.39129939  F F F
        0.50000000 0.50000000 0.60870061  F F F
        0.00000000 0.00000000 0.16545389  T T T
        0.00000000 0.00000000 0.39129939  F F F
        0.00000000 0.00000000 0.60870061  F F F
        0.50000000 0.00000000 0.27954151  T T T
        0.50000000 0.00000000 0.50000000  F F F
        0.50000000 0.00000000 0.71740123  F F F
        0.30404999 0.30404999 0.04506810  T T T

