Automatic mesh
0
Gamma
  3  9  1
  0.  0.  0.

