(Mn O2)16  (P1) ~ POSCAR_3 1 0 0  surfac
   1.00000000000000     
     9.6945899999999998    0.0000000000000000    0.0000000000000000
     0.0000000000000000    2.8412999999999999    0.0000000000000000
     0.0000000000000000    0.0000000000000000   29.3978000000000002
     O    Mn
       33    16
Selective dynamics
Direct
  0.3422822974418470  0.5000000000000000  0.1570658918816242   T   T   T
  0.1555580308316302  0.0000000000000000  0.4321849917907170   T   T   T
  0.1558710999999988  0.0000000000000000  0.7621268600000022   F   F   F
  0.6584543055706116  0.5000000000000000  0.2669393373440983   T   T   T
  0.6558710999999988  0.5000000000000000  0.5971672399999974   F   F   F
  0.8442898652807830  0.0000000000000000  0.2364572233658707   T   T   T
  0.8441289000000012  0.0000000000000000  0.5677923900000010   F   F   F
  0.3451829295498870  0.5000000000000000  0.4014900794780309   T   T   T
  0.3441289000000012  0.5000000000000000  0.7327520099999987   F   F   F
  0.7980426252568945 -0.0000000000000000  0.4479612398457477   T   T   T
  0.7964066600000024  0.0000000000000000  0.7785174600000033   F   F   F
  0.2947938990326408  0.5000000000000000  0.2831018630710254   T   T   T
  0.2964066600000024  0.5000000000000000  0.6135578399999986   F   F   F
  0.2041450521094248  0.0000000000000000  0.2208101181552176   T   T   T
  0.2035933399999976  0.0000000000000000  0.5514017799999991   F   F   F
  0.7051917955960290  0.5000000000000000  0.3860710364944297   T   T   T
  0.7035933399999976  0.5000000000000000  0.7163614099999975   F   F   F
  0.1629004858107584  0.0000000000000000  0.3480245554383002   T   T   T
  0.1613142900000000  0.0000000000000000  0.6780752600000000   F   F   F
  0.6588555955077666  0.5000000000000000  0.1836065782541005   T   T   T
  0.6613142900000000  0.5000000000000000  0.5131156300000015   F   F   F
  0.8385908366110738 -0.0000000000000000  0.3207595002009951   T   T   T
  0.8386857100000000  0.0000000000000000  0.6518439900000033   F   F   F
  0.3353946280713535  0.5000000000000000  0.4859994720065856   T   T   T
  0.3386857100000000  0.5000000000000000  0.8168036100000009   F   F   F
  0.5424977546255974 -0.0000000000000000  0.4448782818791145   T   T   T
  0.5414096800000010  0.0000000000000000  0.7750918999999996   F   F   F
  0.0405201310039586  0.5000000000000000  0.2808058859649055   T   T   T
  0.0414096800000010  0.5000000000000000  0.6101322800000020   F   F   F
  0.4601908504249474 -0.0000000000000000  0.2253712545705768   T   T   T
  0.4585903199999990  0.0000000000000000  0.5548273400000028   F   F   F
  0.9598717860636661  0.5000000000000000  0.3876427143366368   T   T   T
  0.9585903199999990  0.5000000000000000  0.7197869700000012   F   F   F
  0.3488921553326949 -0.0000000000000000  0.4440515337014988   T   T   T
  0.3477854699999980  0.0000000000000000  0.7751120499999971   F   F   F
  0.8479418937494603  0.5000000000000000  0.2787924538562496   T   T   T
  0.8477854699999980  0.5000000000000000  0.6101524299999994   F   F   F
  0.6515463809500032 -0.0000000000000000  0.2220192671767425   T   T   T
  0.6522145300000020  0.0000000000000000  0.5548071999999991   F   F   F
  0.1512224851594389  0.5000000000000000  0.3895077294581285   T   T   T
  0.1522145300000020  0.5000000000000000  0.7197668199999967   F   F   F
  0.8335758098124023  0.0000000000000000  0.3839808692149175   T   T   T
  0.8324314999999984  0.0000000000000000  0.7148769699999988   F   F   F
  0.3332276236572334  0.5000000000000000  0.2179571080238796   T   T   T
  0.3324314999999984  0.5000000000000000  0.5499173500000012   F   F   F
  0.1681910775941103  0.0000000000000000  0.2842631382335893   T   T   T
  0.1675685000000016  0.0000000000000000  0.6150422700000036   F   F   F
  0.6691747118551044  0.5000000000000000  0.4497638977727039   T   T   T
  0.6675685000000016  0.5000000000000000  0.7800018900000012   F   F   F
 
  0.00000000E+00  0.00000000E+00  0.00000000E+00
  0.00000000E+00  0.00000000E+00  0.00000000E+00
  0.00000000E+00  0.00000000E+00  0.00000000E+00
  0.00000000E+00  0.00000000E+00  0.00000000E+00
  0.00000000E+00  0.00000000E+00  0.00000000E+00
  0.00000000E+00  0.00000000E+00  0.00000000E+00
  0.00000000E+00  0.00000000E+00  0.00000000E+00
  0.00000000E+00  0.00000000E+00  0.00000000E+00
  0.00000000E+00  0.00000000E+00  0.00000000E+00
  0.00000000E+00  0.00000000E+00  0.00000000E+00
  0.00000000E+00  0.00000000E+00  0.00000000E+00
  0.00000000E+00  0.00000000E+00  0.00000000E+00
  0.00000000E+00  0.00000000E+00  0.00000000E+00
  0.00000000E+00  0.00000000E+00  0.00000000E+00
  0.00000000E+00  0.00000000E+00  0.00000000E+00
  0.00000000E+00  0.00000000E+00  0.00000000E+00
  0.00000000E+00  0.00000000E+00  0.00000000E+00
  0.00000000E+00  0.00000000E+00  0.00000000E+00
  0.00000000E+00  0.00000000E+00  0.00000000E+00
  0.00000000E+00  0.00000000E+00  0.00000000E+00
  0.00000000E+00  0.00000000E+00  0.00000000E+00
  0.00000000E+00  0.00000000E+00  0.00000000E+00
  0.00000000E+00  0.00000000E+00  0.00000000E+00
  0.00000000E+00  0.00000000E+00  0.00000000E+00
  0.00000000E+00  0.00000000E+00  0.00000000E+00
  0.00000000E+00  0.00000000E+00  0.00000000E+00
  0.00000000E+00  0.00000000E+00  0.00000000E+00
  0.00000000E+00  0.00000000E+00  0.00000000E+00
  0.00000000E+00  0.00000000E+00  0.00000000E+00
  0.00000000E+00  0.00000000E+00  0.00000000E+00
  0.00000000E+00  0.00000000E+00  0.00000000E+00
  0.00000000E+00  0.00000000E+00  0.00000000E+00
  0.00000000E+00  0.00000000E+00  0.00000000E+00
  0.00000000E+00  0.00000000E+00  0.00000000E+00
  0.00000000E+00  0.00000000E+00  0.00000000E+00
  0.00000000E+00  0.00000000E+00  0.00000000E+00
  0.00000000E+00  0.00000000E+00  0.00000000E+00
  0.00000000E+00  0.00000000E+00  0.00000000E+00
  0.00000000E+00  0.00000000E+00  0.00000000E+00
  0.00000000E+00  0.00000000E+00  0.00000000E+00
  0.00000000E+00  0.00000000E+00  0.00000000E+00
  0.00000000E+00  0.00000000E+00  0.00000000E+00
  0.00000000E+00  0.00000000E+00  0.00000000E+00
  0.00000000E+00  0.00000000E+00  0.00000000E+00
  0.00000000E+00  0.00000000E+00  0.00000000E+00
  0.00000000E+00  0.00000000E+00  0.00000000E+00
  0.00000000E+00  0.00000000E+00  0.00000000E+00
  0.00000000E+00  0.00000000E+00  0.00000000E+00
  0.00000000E+00  0.00000000E+00  0.00000000E+00
  0.00000000E+00  0.00000000E+00  0.00000000E+00
