Li Mn30 O62  (P1) ~ CONTCAR (VASP)      
   1.00000000000000     
     4.5329999900000004    0.0000000000000000    0.0000000000000000
     0.0000000000000000    2.8659999400000000    0.0000000000000000
     0.0000000000000000    0.0000000000000000  100.0000000000000000
   Mn   O    Li
    30    62     1
Direct
  0.0644214646089480  0.2580482441957841  0.6195763546513930
  0.0535140323765759  0.2546581804162784  0.5260751914095394
  0.9468995180443329  0.7496688781542744  0.2170414741115820
  0.0508455925830660  0.2517792977720106  0.4324961240926868
  0.9741516314804244  0.7500115813662660  0.3126533043683821
  0.0340773659833786  0.2502094041436465  0.3381013255695819
  0.9592874607863919  0.7513464452636072  0.4073183815506667
  0.0345340095234405  0.2497055030576547  0.2428536957049374
  0.9508878618168026  0.7538955356670414  0.5010660381709826
  0.9610612788224557  0.7573471131548075  0.5945932776549157
  0.4533249832000337  0.2612423169400628  0.6673312352779632
  0.4617955123386395  0.2563812357724657  0.5728583361567772
  0.4525935474048239  0.2530984600111665  0.4793285224620760
  0.5364367260924752  0.7497545816418807  0.2650550327817953
  0.4595067341269043  0.2508625995539759  0.3853850780944512
  0.5338420933448731  0.7505268014551874  0.3600613774190080
  0.4743132218840671  0.2498370019248171  0.2905941203781808
  0.5521324306090349  0.7524692200223413  0.4542633426524816
  0.5561858145218608  0.7555302288397101  0.5478096818633986
  0.5678863492272299  0.7596585582079314  0.6412567982005868
  0.9687800348848157  0.7626194590158093  0.6902378810963867
  0.9744753592737467  0.7642369266823010  0.7339513116176732
  0.9753922410420017  0.7653709106200779  0.7776948310637977
  0.9765242134116718  0.7662851403278026  0.8217312639142023
  0.9807086658037889  0.7668511002820253  0.8662399089122204
  0.4718452656147534  0.2636454212581825  0.7121197791185665
  0.4749522825680472  0.2648133456008850  0.7557915043319312
  0.4770293079178174  0.2658797501014263  0.7996723148425318
  0.4775184308077627  0.2666123335540931  0.8439414974510484
  0.4777153197868245  0.2672236208312171  0.8887522909260426
  0.3870053032214358  0.2590404860076703  0.6323003399257914
  0.3696229949299052  0.2553715308036431  0.5388946452202035
  0.6355123970840566  0.7495922288353469  0.2059794404825084
  0.3660425114456061  0.2523415228064465  0.4453415813678561
  0.6827640162853186  0.7498591939312718  0.2986880644799967
  0.3288113471267096  0.2504648743878803  0.3519537794894845
  0.6535485307129107  0.7509403066061893  0.3941778016456183
  0.3331409753174484  0.2497433425676263  0.2567518443317311
  0.6330510267494063  0.7532285698637722  0.4886304450239933
  0.6457810768370962  0.7565619862368749  0.5820023094452651
  0.6380119205837218  0.7615051362507970  0.6763793480834579
  0.1161072552153115  0.2620765885747787  0.6782264234114876
  0.1461640919472558  0.2571691491421646  0.5856476447410301
  0.1340387302565844  0.2537513541346925  0.4920236194647174
  0.8343004286240259  0.7497124429991473  0.2514194435973494
  0.1534031229697064  0.2512533518621893  0.3987398516385170
  0.8288607505354193  0.7502563534115652  0.3463747164606374
  0.1835788226003743  0.2499768422627611  0.3046195377358885
  0.8666945674515318  0.7518907338281622  0.4416243172409722
  0.1289392598383827  0.2496590449924341  0.2080911630364142
  0.8711583136962915  0.7548104359921410  0.5352645379478247
  0.8879002864429211  0.7583989396317321  0.6291465146795119
  0.7460639827499023  0.2608724020652886  0.6525489338676493
  0.7324611041832867  0.2556740571705234  0.5580279668877850
  0.7265189006369539  0.2525881748219092  0.4645899941824325
  0.2854682754147504  0.7498168187123326  0.2809276147603441
  0.7188892748899249  0.2505815759787424  0.3700033857033702
  0.2759101675689521  0.7507915088057544  0.3756424631225102
  0.7243553287240800  0.2497659054460613  0.2747953564762895
  0.2779071399198969  0.7529803528779482  0.4691936519510804
  0.2846669039818437  0.7562023151777169  0.5628022407421085
  0.2979717832904427  0.7608483574753890  0.6561650523193165
  0.7866226942531824  0.2574923486111160  0.6049024944706218
  0.7781277622227591  0.2540420492378885  0.5114120788036871
  0.2150539982852990  0.7496985723342533  0.2329850287486579
  0.7809999305773516  0.2514130720149339  0.4174851831867556
  0.2232172010284614  0.7501672047067700  0.3285067081948938
  0.7842859985312316  0.2500436957509109  0.3223069019879574
  0.2279400628229951  0.7516885845418884  0.4224352016492645
  0.7704285135883993  0.2496721224784508  0.2277159267409274
  0.2276844304776660  0.7545247225381999  0.5159174874524908
  0.2381701777315044  0.7577756130229645  0.6093798432852537
  0.6421761885398070  0.7637410455402787  0.7218353738883110
  0.6409370893188893  0.7649036418541755  0.7657033511335314
  0.6459127851478144  0.7659553432538360  0.8095052556950790
  0.6590480486996952  0.7666629493861308  0.8532461872857908
  0.6503535446643980  0.7674522257344023  0.8982428228842707
  0.8006566596654991  0.2629162125476299  0.6995970178949662
  0.8103353114294123  0.2643246222193341  0.7438705906688696
  0.8094117833052223  0.2654576361029370  0.7876054680234503
  0.8031849348075752  0.2663400677504626  0.8313826529520156
  0.7856287025293653  0.2669172970363149  0.8750174090712264
  0.1366253147071248  0.2641078256683116  0.7238017237318743
  0.1414364939121810  0.2652780675205051  0.7677328511982608
  0.1473899788650357  0.2662228940793199  0.8119471499418367
  0.1609970797891762  0.2668403910769683  0.8568311765959535
  0.2446950141602287  0.2723029903202132  0.9036424642153662
  0.3091848817713512  0.7634491548404583  0.7017732764875149
  0.3108101851765284  0.7647140637572818  0.7457178749603557
  0.3084260191259887  0.7657934952315983  0.7897859461630077
  0.3018686131259045  0.7665648840211219  0.8342697934665182
  0.2703423784583805  0.7674940671800528  0.8800881777685774
  0.9370117921631049  0.7611010801455933  0.6628678761438067
 
  0.00000000E+00  0.00000000E+00  0.00000000E+00
  0.00000000E+00  0.00000000E+00  0.00000000E+00
  0.00000000E+00  0.00000000E+00  0.00000000E+00
  0.00000000E+00  0.00000000E+00  0.00000000E+00
  0.00000000E+00  0.00000000E+00  0.00000000E+00
  0.00000000E+00  0.00000000E+00  0.00000000E+00
  0.00000000E+00  0.00000000E+00  0.00000000E+00
  0.00000000E+00  0.00000000E+00  0.00000000E+00
  0.00000000E+00  0.00000000E+00  0.00000000E+00
  0.00000000E+00  0.00000000E+00  0.00000000E+00
  0.00000000E+00  0.00000000E+00  0.00000000E+00
  0.00000000E+00  0.00000000E+00  0.00000000E+00
  0.00000000E+00  0.00000000E+00  0.00000000E+00
  0.00000000E+00  0.00000000E+00  0.00000000E+00
  0.00000000E+00  0.00000000E+00  0.00000000E+00
  0.00000000E+00  0.00000000E+00  0.00000000E+00
  0.00000000E+00  0.00000000E+00  0.00000000E+00
  0.00000000E+00  0.00000000E+00  0.00000000E+00
  0.00000000E+00  0.00000000E+00  0.00000000E+00
  0.00000000E+00  0.00000000E+00  0.00000000E+00
  0.00000000E+00  0.00000000E+00  0.00000000E+00
  0.00000000E+00  0.00000000E+00  0.00000000E+00
  0.00000000E+00  0.00000000E+00  0.00000000E+00
  0.00000000E+00  0.00000000E+00  0.00000000E+00
  0.00000000E+00  0.00000000E+00  0.00000000E+00
  0.00000000E+00  0.00000000E+00  0.00000000E+00
  0.00000000E+00  0.00000000E+00  0.00000000E+00
  0.00000000E+00  0.00000000E+00  0.00000000E+00
  0.00000000E+00  0.00000000E+00  0.00000000E+00
  0.00000000E+00  0.00000000E+00  0.00000000E+00
  0.00000000E+00  0.00000000E+00  0.00000000E+00
  0.00000000E+00  0.00000000E+00  0.00000000E+00
  0.00000000E+00  0.00000000E+00  0.00000000E+00
  0.00000000E+00  0.00000000E+00  0.00000000E+00
  0.00000000E+00  0.00000000E+00  0.00000000E+00
  0.00000000E+00  0.00000000E+00  0.00000000E+00
  0.00000000E+00  0.00000000E+00  0.00000000E+00
  0.00000000E+00  0.00000000E+00  0.00000000E+00
  0.00000000E+00  0.00000000E+00  0.00000000E+00
  0.00000000E+00  0.00000000E+00  0.00000000E+00
  0.00000000E+00  0.00000000E+00  0.00000000E+00
  0.00000000E+00  0.00000000E+00  0.00000000E+00
  0.00000000E+00  0.00000000E+00  0.00000000E+00
  0.00000000E+00  0.00000000E+00  0.00000000E+00
  0.00000000E+00  0.00000000E+00  0.00000000E+00
  0.00000000E+00  0.00000000E+00  0.00000000E+00
  0.00000000E+00  0.00000000E+00  0.00000000E+00
  0.00000000E+00  0.00000000E+00  0.00000000E+00
  0.00000000E+00  0.00000000E+00  0.00000000E+00
  0.00000000E+00  0.00000000E+00  0.00000000E+00
  0.00000000E+00  0.00000000E+00  0.00000000E+00
  0.00000000E+00  0.00000000E+00  0.00000000E+00
  0.00000000E+00  0.00000000E+00  0.00000000E+00
  0.00000000E+00  0.00000000E+00  0.00000000E+00
  0.00000000E+00  0.00000000E+00  0.00000000E+00
  0.00000000E+00  0.00000000E+00  0.00000000E+00
  0.00000000E+00  0.00000000E+00  0.00000000E+00
  0.00000000E+00  0.00000000E+00  0.00000000E+00
  0.00000000E+00  0.00000000E+00  0.00000000E+00
  0.00000000E+00  0.00000000E+00  0.00000000E+00
  0.00000000E+00  0.00000000E+00  0.00000000E+00
  0.00000000E+00  0.00000000E+00  0.00000000E+00
  0.00000000E+00  0.00000000E+00  0.00000000E+00
  0.00000000E+00  0.00000000E+00  0.00000000E+00
  0.00000000E+00  0.00000000E+00  0.00000000E+00
  0.00000000E+00  0.00000000E+00  0.00000000E+00
  0.00000000E+00  0.00000000E+00  0.00000000E+00
  0.00000000E+00  0.00000000E+00  0.00000000E+00
  0.00000000E+00  0.00000000E+00  0.00000000E+00
  0.00000000E+00  0.00000000E+00  0.00000000E+00
  0.00000000E+00  0.00000000E+00  0.00000000E+00
  0.00000000E+00  0.00000000E+00  0.00000000E+00
  0.00000000E+00  0.00000000E+00  0.00000000E+00
  0.00000000E+00  0.00000000E+00  0.00000000E+00
  0.00000000E+00  0.00000000E+00  0.00000000E+00
  0.00000000E+00  0.00000000E+00  0.00000000E+00
  0.00000000E+00  0.00000000E+00  0.00000000E+00
  0.00000000E+00  0.00000000E+00  0.00000000E+00
  0.00000000E+00  0.00000000E+00  0.00000000E+00
  0.00000000E+00  0.00000000E+00  0.00000000E+00
  0.00000000E+00  0.00000000E+00  0.00000000E+00
  0.00000000E+00  0.00000000E+00  0.00000000E+00
  0.00000000E+00  0.00000000E+00  0.00000000E+00
  0.00000000E+00  0.00000000E+00  0.00000000E+00
  0.00000000E+00  0.00000000E+00  0.00000000E+00
  0.00000000E+00  0.00000000E+00  0.00000000E+00
  0.00000000E+00  0.00000000E+00  0.00000000E+00
  0.00000000E+00  0.00000000E+00  0.00000000E+00
  0.00000000E+00  0.00000000E+00  0.00000000E+00
  0.00000000E+00  0.00000000E+00  0.00000000E+00
  0.00000000E+00  0.00000000E+00  0.00000000E+00
  0.00000000E+00  0.00000000E+00  0.00000000E+00
  0.00000000E+00  0.00000000E+00  0.00000000E+00
