    AMIN = 0.01
    NPAR = 8
  MAGMOM = 30*4 63*0
    PREC = Normal
   ENCUT = 400
  IBRION = -1
     NSW = 0
    ISIF = 2
  NELMIN = 2
 VOSKOWN = 1
  NBLOCK = 1
    NELM = 60
    ALGO = Normal (blocked Davidson)
   ISPIN = 2
    LDAU = .TRUE.
LDAUTYPE = 2
   LDAUL = 2 -1 0
   LDAUU = 3.9 0 1.0
   LDAUJ = 0 0 0
 LMAXMIX = 4
  INIWAV = 1
  ISTART = 0
  ICHARG = 2
   LWAVE = .FALSE.
  LCHARG = .FALSE.
 ADDGRID = .FALSE.
  ISMEAR = -5
   SIGMA = 0.2
   LREAL = .FALSE.
  NWRITE = 1
