Li Mn30 O62  (P1) ~ CONTCAR (VASP)      
   1.00000000000000     
     4.5329999900000004    0.0000000000000000    0.0000000000000000
     0.0000000000000000    2.8659999400000000    0.0000000000000000
     0.0000000000000000    0.0000000000000000  100.0000000000000000
   Mn   O    Li
    30    62     1
Direct
  0.0644214646089505  0.2580482441957864  0.6195763546513939
  0.0535140323765736  0.2546581804162796  0.5260751914095372
  0.9468995180443297  0.7496688781542722  0.2170414741115788
  0.0508455925830662  0.2517792977720104  0.4324961240926850
  0.9741516314804267  0.7500115813662661  0.3126533043683847
  0.0340773659833782  0.2502094041436447  0.3381013255695812
  0.9592874607863892  0.7513464452636071  0.4073183815506660
  0.0345340095234417  0.2497055030576570  0.2428536957049387
  0.9508878618168033  0.7538955356670378  0.5010660381709799
  0.9610612788224527  0.7573471131548081  0.5945932776549134
  0.4533249832000339  0.2612423169400639  0.6673312352779612
  0.4617955123386387  0.2563812357724654  0.5728583361567784
  0.4525935474048274  0.2530984600111687  0.4793285224620734
  0.5364367260924767  0.7497545816418781  0.2650550327817973
  0.4595067341269012  0.2508625995539751  0.3853850780944504
  0.5338420933448764  0.7505268014551868  0.3600613774190070
  0.4743132218840636  0.2498370019248186  0.2905941203781828
  0.5521324306090356  0.7524692200223411  0.4542633426524837
  0.5561858145218593  0.7555302288397074  0.5478096818633980
  0.5678863492272284  0.7596585582079278  0.6412567982005898
  0.9687800348848130  0.7626194590158129  0.6902378810963856
  0.9744753592737481  0.7642369266823020  0.7339513116176741
  0.9753922410420025  0.7653709106200772  0.7776948310637979
  0.9765242134116685  0.7662851403278060  0.8217312639141989
  0.9807086658037859  0.7668511002820272  0.8662399089122181
  0.4718452656147538  0.2636454212581797  0.7121197791185696
  0.4749522825680507  0.2648133456008884  0.7557915043319295
  0.4770293079178206  0.2658797501014292  0.7996723148425346
  0.4775184308077641  0.2666123335540952  0.8439414974510518
  0.4777153197868267  0.2672236208312154  0.8887522909260455
  0.3870053032214348  0.2590404860076683  0.6323003399257912
  0.3696229949299027  0.2553715308036411  0.5388946452202004
  0.6355123970840539  0.7495922288353475  0.2059794404825104
  0.3660425114456048  0.2523415228064499  0.4453415813678542
  0.6827640162853192  0.7498591939312691  0.2986880644799946
  0.3288113471267064  0.2504648743878833  0.3519537794894818
  0.6535485307129077  0.7509403066061907  0.3941778016456173
  0.3331409753174472  0.2497433425676282  0.2567518443317299
  0.6330510267494079  0.7532285698637748  0.4886304450239959
  0.6457810768370954  0.7565619862368738  0.5820023094452618
  0.6380119205837194  0.7615051362508002  0.6763793480834588
  0.1161072552153124  0.2620765885747779  0.6782264234114880
  0.1461640919472562  0.2571691491421644  0.5856476447410277
  0.1340387302565836  0.2537513541346935  0.4920236194647150
  0.8343004286240275  0.7497124429991464  0.2514194435973495
  0.1534031229697093  0.2512533518621925  0.3987398516385140
  0.8288607505354183  0.7502563534115659  0.3463747164606340
  0.1835788226003768  0.2499768422627626  0.3046195377358920
  0.8666945674515325  0.7518907338281635  0.4416243172409752
  0.1289392598383828  0.2496590449924346  0.2080911630364140
  0.8711583136962904  0.7548104359921383  0.5352645379478244
  0.8879002864429203  0.7583989396317348  0.6291465146795102
  0.7460639827499052  0.2608724020652902  0.6525489338676507
  0.7324611041832868  0.2556740571705257  0.5580279668877879
  0.7265189006369567  0.2525881748219084  0.4645899941824295
  0.2854682754147538  0.7498168187123321  0.2809276147603418
  0.7188892748899284  0.2505815759787455  0.3700033857033699
  0.2759101675689501  0.7507915088057578  0.3756424631225136
  0.7243553287240810  0.2497659054460596  0.2747953564762919
  0.2779071399198989  0.7529803528779500  0.4691936519510812
  0.2846669039818419  0.7562023151777146  0.5628022407421098
  0.2979717832904457  0.7608483574753879  0.6561650523193158
  0.7866226942531847  0.2574923486111184  0.6049024944706208
  0.7781277622227600  0.2540420492378863  0.5114120788036874
  0.2150539982852997  0.7496985723342559  0.2329850287486588
  0.7809999305773522  0.2514130720149371  0.4174851831867556
  0.2232172010284597  0.7501672047067692  0.3285067081948903
  0.7842859985312329  0.2500436957509083  0.3223069019879568
  0.2279400628229976  0.7516885845418909  0.4224352016492612
  0.7704285135883978  0.2496721224784478  0.2277159267409262
  0.2276844304776691  0.7545247225382027  0.5159174874524924
  0.2381701777315016  0.7577756130229631  0.6093798432852543
  0.6421761885398067  0.7637410455402805  0.7218353738883104
  0.6409370893188868  0.7649036418541783  0.7657033511335312
  0.6459127851478134  0.7659553432538382  0.8095052556950815
  0.6590480486996936  0.7666629493861330  0.8532461872857912
  0.6503535446643995  0.7674522257344013  0.8982428228842680
  0.8006566596654974  0.2629162125476325  0.6995970178949631
  0.8103353114294157  0.2643246222193307  0.7438705906688707
  0.8094117833052195  0.2654576361029390  0.7876054680234493
  0.8031849348075770  0.2663400677504602  0.8313826529520121
  0.7856287025293641  0.2669172970363159  0.8750174090712257
  0.1366253147071233  0.2641078256683111  0.7238017237318740
  0.1414364939121831  0.2652780675205086  0.7677328511982573
  0.1473899788650375  0.2662228940793207  0.8119471499418339
  0.1609970797891729  0.2668403910769683  0.8568311765959549
  0.2446950141602254  0.2723029903202164  0.9036424642153682
  0.3091848817713501  0.7634491548404568  0.7017732764875142
  0.3108101851765280  0.7647140637572829  0.7457178749603522
  0.3084260191259892  0.7657934952315950  0.7897859461630056
  0.3018686131259026  0.7665648840211212  0.8342697934665162
  0.2703423784583788  0.7674940671800512  0.8800881777685755
  0.9370117921631032  0.7611010801455969  0.6628678761438098
 
  0.00000000E+00  0.00000000E+00  0.00000000E+00
  0.00000000E+00  0.00000000E+00  0.00000000E+00
  0.00000000E+00  0.00000000E+00  0.00000000E+00
  0.00000000E+00  0.00000000E+00  0.00000000E+00
  0.00000000E+00  0.00000000E+00  0.00000000E+00
  0.00000000E+00  0.00000000E+00  0.00000000E+00
  0.00000000E+00  0.00000000E+00  0.00000000E+00
  0.00000000E+00  0.00000000E+00  0.00000000E+00
  0.00000000E+00  0.00000000E+00  0.00000000E+00
  0.00000000E+00  0.00000000E+00  0.00000000E+00
  0.00000000E+00  0.00000000E+00  0.00000000E+00
  0.00000000E+00  0.00000000E+00  0.00000000E+00
  0.00000000E+00  0.00000000E+00  0.00000000E+00
  0.00000000E+00  0.00000000E+00  0.00000000E+00
  0.00000000E+00  0.00000000E+00  0.00000000E+00
  0.00000000E+00  0.00000000E+00  0.00000000E+00
  0.00000000E+00  0.00000000E+00  0.00000000E+00
  0.00000000E+00  0.00000000E+00  0.00000000E+00
  0.00000000E+00  0.00000000E+00  0.00000000E+00
  0.00000000E+00  0.00000000E+00  0.00000000E+00
  0.00000000E+00  0.00000000E+00  0.00000000E+00
  0.00000000E+00  0.00000000E+00  0.00000000E+00
  0.00000000E+00  0.00000000E+00  0.00000000E+00
  0.00000000E+00  0.00000000E+00  0.00000000E+00
  0.00000000E+00  0.00000000E+00  0.00000000E+00
  0.00000000E+00  0.00000000E+00  0.00000000E+00
  0.00000000E+00  0.00000000E+00  0.00000000E+00
  0.00000000E+00  0.00000000E+00  0.00000000E+00
  0.00000000E+00  0.00000000E+00  0.00000000E+00
  0.00000000E+00  0.00000000E+00  0.00000000E+00
  0.00000000E+00  0.00000000E+00  0.00000000E+00
  0.00000000E+00  0.00000000E+00  0.00000000E+00
  0.00000000E+00  0.00000000E+00  0.00000000E+00
  0.00000000E+00  0.00000000E+00  0.00000000E+00
  0.00000000E+00  0.00000000E+00  0.00000000E+00
  0.00000000E+00  0.00000000E+00  0.00000000E+00
  0.00000000E+00  0.00000000E+00  0.00000000E+00
  0.00000000E+00  0.00000000E+00  0.00000000E+00
  0.00000000E+00  0.00000000E+00  0.00000000E+00
  0.00000000E+00  0.00000000E+00  0.00000000E+00
  0.00000000E+00  0.00000000E+00  0.00000000E+00
  0.00000000E+00  0.00000000E+00  0.00000000E+00
  0.00000000E+00  0.00000000E+00  0.00000000E+00
  0.00000000E+00  0.00000000E+00  0.00000000E+00
  0.00000000E+00  0.00000000E+00  0.00000000E+00
  0.00000000E+00  0.00000000E+00  0.00000000E+00
  0.00000000E+00  0.00000000E+00  0.00000000E+00
  0.00000000E+00  0.00000000E+00  0.00000000E+00
  0.00000000E+00  0.00000000E+00  0.00000000E+00
  0.00000000E+00  0.00000000E+00  0.00000000E+00
  0.00000000E+00  0.00000000E+00  0.00000000E+00
  0.00000000E+00  0.00000000E+00  0.00000000E+00
  0.00000000E+00  0.00000000E+00  0.00000000E+00
  0.00000000E+00  0.00000000E+00  0.00000000E+00
  0.00000000E+00  0.00000000E+00  0.00000000E+00
  0.00000000E+00  0.00000000E+00  0.00000000E+00
  0.00000000E+00  0.00000000E+00  0.00000000E+00
  0.00000000E+00  0.00000000E+00  0.00000000E+00
  0.00000000E+00  0.00000000E+00  0.00000000E+00
  0.00000000E+00  0.00000000E+00  0.00000000E+00
  0.00000000E+00  0.00000000E+00  0.00000000E+00
  0.00000000E+00  0.00000000E+00  0.00000000E+00
  0.00000000E+00  0.00000000E+00  0.00000000E+00
  0.00000000E+00  0.00000000E+00  0.00000000E+00
  0.00000000E+00  0.00000000E+00  0.00000000E+00
  0.00000000E+00  0.00000000E+00  0.00000000E+00
  0.00000000E+00  0.00000000E+00  0.00000000E+00
  0.00000000E+00  0.00000000E+00  0.00000000E+00
  0.00000000E+00  0.00000000E+00  0.00000000E+00
  0.00000000E+00  0.00000000E+00  0.00000000E+00
  0.00000000E+00  0.00000000E+00  0.00000000E+00
  0.00000000E+00  0.00000000E+00  0.00000000E+00
  0.00000000E+00  0.00000000E+00  0.00000000E+00
  0.00000000E+00  0.00000000E+00  0.00000000E+00
  0.00000000E+00  0.00000000E+00  0.00000000E+00
  0.00000000E+00  0.00000000E+00  0.00000000E+00
  0.00000000E+00  0.00000000E+00  0.00000000E+00
  0.00000000E+00  0.00000000E+00  0.00000000E+00
  0.00000000E+00  0.00000000E+00  0.00000000E+00
  0.00000000E+00  0.00000000E+00  0.00000000E+00
  0.00000000E+00  0.00000000E+00  0.00000000E+00
  0.00000000E+00  0.00000000E+00  0.00000000E+00
  0.00000000E+00  0.00000000E+00  0.00000000E+00
  0.00000000E+00  0.00000000E+00  0.00000000E+00
  0.00000000E+00  0.00000000E+00  0.00000000E+00
  0.00000000E+00  0.00000000E+00  0.00000000E+00
  0.00000000E+00  0.00000000E+00  0.00000000E+00
  0.00000000E+00  0.00000000E+00  0.00000000E+00
  0.00000000E+00  0.00000000E+00  0.00000000E+00
  0.00000000E+00  0.00000000E+00  0.00000000E+00
  0.00000000E+00  0.00000000E+00  0.00000000E+00
  0.00000000E+00  0.00000000E+00  0.00000000E+00
  0.00000000E+00  0.00000000E+00  0.00000000E+00
