(Li2 Mn15 O30)2  (P1) ~ CONTCAR (VASP)  
   1.00000000000000     
     4.6416699630154401   -0.0000087922580585    0.0068080070377235
     0.0000021754610639    2.9370404780295289   -0.0000175669178754
     0.0539611007400899   -0.0006098240080802   68.7541254597503269
   Mn   O    Li
    30    60     1
Direct
  0.0663540656678704  0.2586471500104383  0.6048592141323977
  0.0578438532222196  0.2551717585315444  0.4696409471966244
  0.9675944686657040  0.7570724708012000  0.0235998649847840
  0.0528790440921126  0.2527538277181817  0.3343732013442079
  0.9743953629733892  0.7530118585355593  0.1608387529416023
  0.0362434735935422  0.2525659544128849  0.1979863073427213
  0.9605117351868713  0.7524196474760074  0.2976572621606781
  0.0361460318606692  0.2559646862006046  0.0607491032068256
  0.9527732429858617  0.7545690887652626  0.4331328827309912
  0.9634055554836948  0.7578812765295018  0.5683669880312572
  0.4655061280815397  0.2604936623687840  0.6723181099474648
  0.4638877644511392  0.2568783814840656  0.5373415372059641
  0.4530856592928359  0.2538253177930099  0.4021166071356662
  0.5345165633774722  0.7547339632737298  0.0921761210245085
  0.4602408663448683  0.2522136310547899  0.2663928558041531
  0.5347395558992896  0.7522664212046171  0.2294006812862020
  0.4745959084911949  0.2538601021814413  0.1293717892732021
  0.5521801533896399  0.7532985030779044  0.3654739773779227
  0.5586619569989834  0.7560459044727299  0.5006916921922128
  0.5671737392567651  0.7596917984863911  0.6357694289511675
  0.9633054163829522  0.7612585172265777  0.7032999907660005
  0.9604458550762947  0.7621547712141121  0.7655870644606694
  0.9687292185358192  0.7626173604404998  0.8317718727397466
  0.9760321113610830  0.7611591728325637  0.8981440233793003
  0.9714296104942066  0.7594178602908409  0.9607949286082023
  0.4628953776954888  0.2617929350705759  0.7344227143995319
  0.4588788592914354  0.2624397626348749  0.7965991646672003
  0.4774244036887377  0.2618893039326071  0.8670293983351752
  0.4732876071999476  0.2603544723371267  0.9294446749985354
  0.4688966672123110  0.2583225893518412  0.9922240352010762
  0.3896333720200326  0.2594413291468129  0.6226138335353512
  0.3807038605696526  0.2558321855693562  0.4874643689733013
  0.6433409831772385  0.7580730321785635  0.0058671475780597
  0.3739305064303028  0.2531547564038605  0.3523039150584532
  0.6753856358743719  0.7536598333040359  0.1411126985683744
  0.3395484019041785  0.2522867822875670  0.2172783578869395
  0.6470720611834866  0.7522143360866370  0.2790906131022569
  0.3360739021029986  0.2549200550461020  0.0801851197085371
  0.6282188637010302  0.7539384951825308  0.4155086016232110
  0.6418912392818824  0.7570367906324713  0.5506086026757873
  0.6408470811373951  0.7606086499859429  0.6855731179172547
  0.1313565716480499  0.2610919304135285  0.6892354632892252
  0.1416727615747712  0.2576413624448869  0.5552302874339871
  0.1278842903678369  0.2543872264918893  0.4197315859074050
  0.8362887922365935  0.7556773947841892  0.0725462673859180
  0.1459657303543820  0.2523368123700867  0.2849125067118490
  0.8392277787036285  0.7524732940695161  0.2100482200553780
  0.1747666099977334  0.2531318626544152  0.1489747339872345
  0.8738328559009471  0.7528187169072748  0.3475619831475236
  0.1547394385866981  0.2572826188123302  0.0109392504723582
  0.8817007735054792  0.7553047272014033  0.4829785474490137
  0.8906337752225227  0.7588054694710002  0.6182483577305991
  0.7330075638812057  0.2597935685988740  0.6507159391980308
  0.7269967724764057  0.2561512682593886  0.5155116605602291
  0.7192461548850754  0.2533710093775063  0.3803562512107312
  0.2927727146624238  0.7539616668243956  0.1153113629831935
  0.7118637316552067  0.2522165079947077  0.2437172755913385
  0.2845968798141030  0.7521878354155307  0.2520430748982381
  0.7160694887264807  0.2545083278436914  0.1061155723231976
  0.2865642863452210  0.7536804985762229  0.3872454888407279
  0.2952477742736081  0.7566476961246906  0.5226105090578487
  0.2998179085833650  0.7602950570427706  0.6574466127938023
  0.7978222318600436  0.2579807174972700  0.5833847732207565
  0.7884145763273290  0.2546440224523178  0.4481642885255886
  0.2153142889423612  0.7561255898973391  0.0464163847133515
  0.7903058543334774  0.2524627427374180  0.3124116323354132
  0.2169994714174393  0.7526076601052666  0.1838574530167338
  0.7929148531613395  0.2528652626967882  0.1749035339080115
  0.2218886043266863  0.7526543892902114  0.3196148598975936
  0.7905108969175366  0.2567681060993330  0.0379151357474455
  0.2225205153903972  0.7550115823165525  0.4546494447338137
  0.2318594709137465  0.7584324980462582  0.5899805524859772
  0.6256380007157148  0.7618331983287628  0.7488476777060441
  0.6214650928065480  0.7624915338442668  0.8130872927317200
  0.6453737815406984  0.7616943944313944  0.8804356339160696
  0.6385687438502503  0.7601612506334371  0.9435302857163055
  0.7995149262108748  0.2613333945392444  0.7175818407662256
  0.7988998801197678  0.2622016790058880  0.7803012449178730
  0.8006279014313844  0.2624536675364507  0.8465032678144966
  0.8076493592932543  0.2609761613203673  0.9121207834920955
  0.8036534623281278  0.2591795774870241  0.9748501849673052
  0.1283244810394008  0.2620566424153593  0.7515962371660339
  0.1366483300842896  0.2625492284302001  0.8170008250671470
  0.1377509906813639  0.2612873475556123  0.8833905021041196
  0.1386549946921692  0.2595551424833440  0.9465581662873440
  0.3000171302529320  0.7616725176913436  0.7202205340556236
  0.2914380992502684  0.7623329976664505  0.7831686223349572
  0.3155394341828682  0.7621415581631041  0.8504577353293985
  0.3100056296716686  0.7604805369067625  0.9150147311744844
  0.3011526499697201  0.7584728696073851  0.9782333674587160
  0.4685407012501459  0.2632092836024251  0.8317917789280240
 
  0.00000000E+00  0.00000000E+00  0.00000000E+00
  0.00000000E+00  0.00000000E+00  0.00000000E+00
  0.00000000E+00  0.00000000E+00  0.00000000E+00
  0.00000000E+00  0.00000000E+00  0.00000000E+00
  0.00000000E+00  0.00000000E+00  0.00000000E+00
  0.00000000E+00  0.00000000E+00  0.00000000E+00
  0.00000000E+00  0.00000000E+00  0.00000000E+00
  0.00000000E+00  0.00000000E+00  0.00000000E+00
  0.00000000E+00  0.00000000E+00  0.00000000E+00
  0.00000000E+00  0.00000000E+00  0.00000000E+00
  0.00000000E+00  0.00000000E+00  0.00000000E+00
  0.00000000E+00  0.00000000E+00  0.00000000E+00
  0.00000000E+00  0.00000000E+00  0.00000000E+00
  0.00000000E+00  0.00000000E+00  0.00000000E+00
  0.00000000E+00  0.00000000E+00  0.00000000E+00
  0.00000000E+00  0.00000000E+00  0.00000000E+00
  0.00000000E+00  0.00000000E+00  0.00000000E+00
  0.00000000E+00  0.00000000E+00  0.00000000E+00
  0.00000000E+00  0.00000000E+00  0.00000000E+00
  0.00000000E+00  0.00000000E+00  0.00000000E+00
  0.00000000E+00  0.00000000E+00  0.00000000E+00
  0.00000000E+00  0.00000000E+00  0.00000000E+00
  0.00000000E+00  0.00000000E+00  0.00000000E+00
  0.00000000E+00  0.00000000E+00  0.00000000E+00
  0.00000000E+00  0.00000000E+00  0.00000000E+00
  0.00000000E+00  0.00000000E+00  0.00000000E+00
  0.00000000E+00  0.00000000E+00  0.00000000E+00
  0.00000000E+00  0.00000000E+00  0.00000000E+00
  0.00000000E+00  0.00000000E+00  0.00000000E+00
  0.00000000E+00  0.00000000E+00  0.00000000E+00
  0.00000000E+00  0.00000000E+00  0.00000000E+00
  0.00000000E+00  0.00000000E+00  0.00000000E+00
  0.00000000E+00  0.00000000E+00  0.00000000E+00
  0.00000000E+00  0.00000000E+00  0.00000000E+00
  0.00000000E+00  0.00000000E+00  0.00000000E+00
  0.00000000E+00  0.00000000E+00  0.00000000E+00
  0.00000000E+00  0.00000000E+00  0.00000000E+00
  0.00000000E+00  0.00000000E+00  0.00000000E+00
  0.00000000E+00  0.00000000E+00  0.00000000E+00
  0.00000000E+00  0.00000000E+00  0.00000000E+00
  0.00000000E+00  0.00000000E+00  0.00000000E+00
  0.00000000E+00  0.00000000E+00  0.00000000E+00
  0.00000000E+00  0.00000000E+00  0.00000000E+00
  0.00000000E+00  0.00000000E+00  0.00000000E+00
  0.00000000E+00  0.00000000E+00  0.00000000E+00
  0.00000000E+00  0.00000000E+00  0.00000000E+00
  0.00000000E+00  0.00000000E+00  0.00000000E+00
  0.00000000E+00  0.00000000E+00  0.00000000E+00
  0.00000000E+00  0.00000000E+00  0.00000000E+00
  0.00000000E+00  0.00000000E+00  0.00000000E+00
  0.00000000E+00  0.00000000E+00  0.00000000E+00
  0.00000000E+00  0.00000000E+00  0.00000000E+00
  0.00000000E+00  0.00000000E+00  0.00000000E+00
  0.00000000E+00  0.00000000E+00  0.00000000E+00
  0.00000000E+00  0.00000000E+00  0.00000000E+00
  0.00000000E+00  0.00000000E+00  0.00000000E+00
  0.00000000E+00  0.00000000E+00  0.00000000E+00
  0.00000000E+00  0.00000000E+00  0.00000000E+00
  0.00000000E+00  0.00000000E+00  0.00000000E+00
  0.00000000E+00  0.00000000E+00  0.00000000E+00
  0.00000000E+00  0.00000000E+00  0.00000000E+00
  0.00000000E+00  0.00000000E+00  0.00000000E+00
  0.00000000E+00  0.00000000E+00  0.00000000E+00
  0.00000000E+00  0.00000000E+00  0.00000000E+00
  0.00000000E+00  0.00000000E+00  0.00000000E+00
  0.00000000E+00  0.00000000E+00  0.00000000E+00
  0.00000000E+00  0.00000000E+00  0.00000000E+00
  0.00000000E+00  0.00000000E+00  0.00000000E+00
  0.00000000E+00  0.00000000E+00  0.00000000E+00
  0.00000000E+00  0.00000000E+00  0.00000000E+00
  0.00000000E+00  0.00000000E+00  0.00000000E+00
  0.00000000E+00  0.00000000E+00  0.00000000E+00
  0.00000000E+00  0.00000000E+00  0.00000000E+00
  0.00000000E+00  0.00000000E+00  0.00000000E+00
  0.00000000E+00  0.00000000E+00  0.00000000E+00
  0.00000000E+00  0.00000000E+00  0.00000000E+00
  0.00000000E+00  0.00000000E+00  0.00000000E+00
  0.00000000E+00  0.00000000E+00  0.00000000E+00
  0.00000000E+00  0.00000000E+00  0.00000000E+00
  0.00000000E+00  0.00000000E+00  0.00000000E+00
  0.00000000E+00  0.00000000E+00  0.00000000E+00
  0.00000000E+00  0.00000000E+00  0.00000000E+00
  0.00000000E+00  0.00000000E+00  0.00000000E+00
  0.00000000E+00  0.00000000E+00  0.00000000E+00
  0.00000000E+00  0.00000000E+00  0.00000000E+00
  0.00000000E+00  0.00000000E+00  0.00000000E+00
  0.00000000E+00  0.00000000E+00  0.00000000E+00
  0.00000000E+00  0.00000000E+00  0.00000000E+00
  0.00000000E+00  0.00000000E+00  0.00000000E+00
  0.00000000E+00  0.00000000E+00  0.00000000E+00
  0.00000000E+00  0.00000000E+00  0.00000000E+00
