(Li2 Mn15 O30)2  (P1) ~ CONTCAR (VASP)  
   1.00000000000000     
     4.6423283069339174   -0.0000093457358847    0.0060907763937026
     0.0000018317622157    2.9379692978091270   -0.0000187856194435
     0.0433203723574500   -0.0006384442090492   68.7708269700964792
   Mn   O    Li
    30    60     1
Direct
  0.0662508729895869  0.2586466318430707  0.6048671503802719
  0.0578058943747543  0.2551678762369025  0.4696451486076764
  0.9675752422712814  0.7570742984824063  0.0235974829679876
  0.0529321325586708  0.2527463846035597  0.3343735993302160
  0.9744164563679242  0.7529985606300976  0.1608332342219604
  0.0361791203573829  0.2525514356900803  0.1980034406347236
  0.9604949011237406  0.7524102753888440  0.2976799237080799
  0.0360479590276484  0.2559583249058557  0.0607158825371308
  0.9528360066696516  0.7545655312237528  0.4331241698276133
  0.9634241349198529  0.7578816615614522  0.5683748067355162
  0.4655766042037054  0.2605022890886612  0.6723083975876618
  0.4640935135350905  0.2568759950325480  0.5373738088590915
  0.4530905715696295  0.2538198743900672  0.4020994915880276
  0.5343347704729795  0.7547174167827608  0.0921398798927616
  0.4603200300376198  0.2522025145340681  0.2664084549244563
  0.5346587886857807  0.7522525198312647  0.2294078226941593
  0.4746688890359397  0.2538525710846455  0.1293793022943591
  0.5520925386815119  0.7532903575399557  0.3654997402363548
  0.5584526354841214  0.7560461486428133  0.5006613730324407
  0.5671462459001092  0.7596944043205198  0.6357878889307916
  0.9635103027292798  0.7612719132598548  0.7033065954780590
  0.9603851189024131  0.7621693391453970  0.7655827080623394
  0.9687450255607838  0.7626364813110060  0.8317654449325567
  0.9764170391057675  0.7611862359556268  0.8981646620057427
  0.9713572722759762  0.7594294983365846  0.9607822135931112
  0.4628031881180773  0.2618076156234582  0.7344378287539355
  0.4588720239474541  0.2624522169576682  0.7965962607453740
  0.4774089772623075  0.2619069334546688  0.8670294011788442
  0.4731978303827696  0.2603678877554568  0.9294412014455630
  0.4690469370294016  0.2583233965915894  0.9922105459348619
  0.3894038070502067  0.2594448939410419  0.6226170937287564
  0.3807508214931779  0.2558286147669664  0.4874775796515154
  0.6434019584457885  0.7580730134540477  0.0058559332798306
  0.3738091285372785  0.2531509506162400  0.3523010418505527
  0.6755460394164896  0.7536456227620077  0.1411114545345018
  0.3394614173763429  0.2522757363853632  0.2172846572626929
  0.6469965209072424  0.7522046920948747  0.2790817202056548
  0.3363260673899540  0.2549173677412566  0.0802134411910750
  0.6282994021691736  0.7539340939299901  0.4155125486662077
  0.6416917312689514  0.7570375155003869  0.5505879147773288
  0.6409543989875085  0.7606113168903110  0.6855773358021822
  0.1314107814180280  0.2610985536618854  0.6892413335358982
  0.1419743725779340  0.2576419713480303  0.5552245287067179
  0.1277953393503756  0.2543831167396855  0.4197417096438048
  0.8358102687475096  0.7556716357885521  0.0725570531429215
  0.1461268690273716  0.2523295250711221  0.2849106135277804
  0.8391630336204562  0.7524607312825035  0.2100438308649600
  0.1748137954849770  0.2531195926342636  0.1489837007634746
  0.8738831035043446  0.7528124339052651  0.3475565227328785
  0.1548673467058150  0.2572774047493939  0.0109367678499501
  0.8816447727495513  0.7553020688548303  0.4829756716463264
  0.8906928949918119  0.7588096451650974  0.6182373782139673
  0.7329732528097372  0.2597972952339830  0.6507204702896140
  0.7271532011961231  0.2561491358263451  0.5155179486096039
  0.7191674106212280  0.2533661929929183  0.3803508655278071
  0.2926676992350679  0.7539497106555740  0.1153139453311205
  0.7118430050273948  0.2522050976473560  0.2437112105041745
  0.2845926583551981  0.7521775700048994  0.2520437793864019
  0.7160707828973201  0.2545014904718884  0.1061057181052770
  0.2866770113524613  0.7536765723785058  0.3872486691182065
  0.2951225119880781  0.7566470573042351  0.5226180757084102
  0.2998798083082566  0.7602996811411772  0.6574607269888281
  0.7978177926756664  0.2579796688777257  0.5833969201847595
  0.7883884983650570  0.2546398904070569  0.4481697697657995
  0.2152543653511528  0.7561196322027559  0.0464122802926479
  0.7903875853958428  0.2524544164789432  0.3124104106618227
  0.2170414195462174  0.7525952554096358  0.1838514302818043
  0.7929084933451185  0.2528520630504859  0.1749031522466112
  0.2217715114786927  0.7526481188189902  0.3196107968025018
  0.7905350120341254  0.2567643058453649  0.0379165452426560
  0.2224792799957500  0.7550093703562137  0.4546471098312993
  0.2318710312512275  0.7584362975554871  0.5899880921007231
  0.6256869924731611  0.7618420963437298  0.7488517423610138
  0.6214824947958043  0.7625031251676606  0.8130846693270083
  0.6451262366802042  0.7617036656703438  0.8804234234683782
  0.6386438005564721  0.7601686193654976  0.9435314208674624
  0.7996073636245153  0.2613395269040336  0.7175844953058484
  0.7988954480367718  0.2622117943565442  0.7803050676422373
  0.8005938618814591  0.2624639907080336  0.8465002887091224
  0.8077146265691221  0.2609788361219728  0.9121167901012824
  0.8035374033742111  0.2591815099521154  0.9748508789581171
  0.1284596366824402  0.2620663015282890  0.7515865326461705
  0.1366294842351505  0.2625578927626616  0.8169953591032675
  0.1376798338663124  0.2612912823544876  0.8833833089313397
  0.1387108286000065  0.2595567727473450  0.9465504194243757
  0.3000474209832402  0.7616816118466163  0.7202168609477927
  0.2915406430253982  0.7623466033502181  0.7831719352454936
  0.3155962835219148  0.7621548314782188  0.8504601373896729
  0.3097152514923087  0.7604886989300061  0.9149925361370425
  0.3011541260242572  0.7584740585567522  0.9782318688011360
  0.4685842075460268  0.2632216717082040  0.8317879449524959
 
  0.00000000E+00  0.00000000E+00  0.00000000E+00
  0.00000000E+00  0.00000000E+00  0.00000000E+00
  0.00000000E+00  0.00000000E+00  0.00000000E+00
  0.00000000E+00  0.00000000E+00  0.00000000E+00
  0.00000000E+00  0.00000000E+00  0.00000000E+00
  0.00000000E+00  0.00000000E+00  0.00000000E+00
  0.00000000E+00  0.00000000E+00  0.00000000E+00
  0.00000000E+00  0.00000000E+00  0.00000000E+00
  0.00000000E+00  0.00000000E+00  0.00000000E+00
  0.00000000E+00  0.00000000E+00  0.00000000E+00
  0.00000000E+00  0.00000000E+00  0.00000000E+00
  0.00000000E+00  0.00000000E+00  0.00000000E+00
  0.00000000E+00  0.00000000E+00  0.00000000E+00
  0.00000000E+00  0.00000000E+00  0.00000000E+00
  0.00000000E+00  0.00000000E+00  0.00000000E+00
  0.00000000E+00  0.00000000E+00  0.00000000E+00
  0.00000000E+00  0.00000000E+00  0.00000000E+00
  0.00000000E+00  0.00000000E+00  0.00000000E+00
  0.00000000E+00  0.00000000E+00  0.00000000E+00
  0.00000000E+00  0.00000000E+00  0.00000000E+00
  0.00000000E+00  0.00000000E+00  0.00000000E+00
  0.00000000E+00  0.00000000E+00  0.00000000E+00
  0.00000000E+00  0.00000000E+00  0.00000000E+00
  0.00000000E+00  0.00000000E+00  0.00000000E+00
  0.00000000E+00  0.00000000E+00  0.00000000E+00
  0.00000000E+00  0.00000000E+00  0.00000000E+00
  0.00000000E+00  0.00000000E+00  0.00000000E+00
  0.00000000E+00  0.00000000E+00  0.00000000E+00
  0.00000000E+00  0.00000000E+00  0.00000000E+00
  0.00000000E+00  0.00000000E+00  0.00000000E+00
  0.00000000E+00  0.00000000E+00  0.00000000E+00
  0.00000000E+00  0.00000000E+00  0.00000000E+00
  0.00000000E+00  0.00000000E+00  0.00000000E+00
  0.00000000E+00  0.00000000E+00  0.00000000E+00
  0.00000000E+00  0.00000000E+00  0.00000000E+00
  0.00000000E+00  0.00000000E+00  0.00000000E+00
  0.00000000E+00  0.00000000E+00  0.00000000E+00
  0.00000000E+00  0.00000000E+00  0.00000000E+00
  0.00000000E+00  0.00000000E+00  0.00000000E+00
  0.00000000E+00  0.00000000E+00  0.00000000E+00
  0.00000000E+00  0.00000000E+00  0.00000000E+00
  0.00000000E+00  0.00000000E+00  0.00000000E+00
  0.00000000E+00  0.00000000E+00  0.00000000E+00
  0.00000000E+00  0.00000000E+00  0.00000000E+00
  0.00000000E+00  0.00000000E+00  0.00000000E+00
  0.00000000E+00  0.00000000E+00  0.00000000E+00
  0.00000000E+00  0.00000000E+00  0.00000000E+00
  0.00000000E+00  0.00000000E+00  0.00000000E+00
  0.00000000E+00  0.00000000E+00  0.00000000E+00
  0.00000000E+00  0.00000000E+00  0.00000000E+00
  0.00000000E+00  0.00000000E+00  0.00000000E+00
  0.00000000E+00  0.00000000E+00  0.00000000E+00
  0.00000000E+00  0.00000000E+00  0.00000000E+00
  0.00000000E+00  0.00000000E+00  0.00000000E+00
  0.00000000E+00  0.00000000E+00  0.00000000E+00
  0.00000000E+00  0.00000000E+00  0.00000000E+00
  0.00000000E+00  0.00000000E+00  0.00000000E+00
  0.00000000E+00  0.00000000E+00  0.00000000E+00
  0.00000000E+00  0.00000000E+00  0.00000000E+00
  0.00000000E+00  0.00000000E+00  0.00000000E+00
  0.00000000E+00  0.00000000E+00  0.00000000E+00
  0.00000000E+00  0.00000000E+00  0.00000000E+00
  0.00000000E+00  0.00000000E+00  0.00000000E+00
  0.00000000E+00  0.00000000E+00  0.00000000E+00
  0.00000000E+00  0.00000000E+00  0.00000000E+00
  0.00000000E+00  0.00000000E+00  0.00000000E+00
  0.00000000E+00  0.00000000E+00  0.00000000E+00
  0.00000000E+00  0.00000000E+00  0.00000000E+00
  0.00000000E+00  0.00000000E+00  0.00000000E+00
  0.00000000E+00  0.00000000E+00  0.00000000E+00
  0.00000000E+00  0.00000000E+00  0.00000000E+00
  0.00000000E+00  0.00000000E+00  0.00000000E+00
  0.00000000E+00  0.00000000E+00  0.00000000E+00
  0.00000000E+00  0.00000000E+00  0.00000000E+00
  0.00000000E+00  0.00000000E+00  0.00000000E+00
  0.00000000E+00  0.00000000E+00  0.00000000E+00
  0.00000000E+00  0.00000000E+00  0.00000000E+00
  0.00000000E+00  0.00000000E+00  0.00000000E+00
  0.00000000E+00  0.00000000E+00  0.00000000E+00
  0.00000000E+00  0.00000000E+00  0.00000000E+00
  0.00000000E+00  0.00000000E+00  0.00000000E+00
  0.00000000E+00  0.00000000E+00  0.00000000E+00
  0.00000000E+00  0.00000000E+00  0.00000000E+00
  0.00000000E+00  0.00000000E+00  0.00000000E+00
  0.00000000E+00  0.00000000E+00  0.00000000E+00
  0.00000000E+00  0.00000000E+00  0.00000000E+00
  0.00000000E+00  0.00000000E+00  0.00000000E+00
  0.00000000E+00  0.00000000E+00  0.00000000E+00
  0.00000000E+00  0.00000000E+00  0.00000000E+00
  0.00000000E+00  0.00000000E+00  0.00000000E+00
  0.00000000E+00  0.00000000E+00  0.00000000E+00
