(Mn O2)4  (Pnma) ~  (Pearson #541374)_1 
   1.00000000000000     
     9.1615916679859399    0.0000000000000000    0.0000000000000000
     0.0000000000000000    2.8367965838494147   -0.0000000000000000
     0.0000000000000000   -0.0000000000000000    4.5424287985715841
   Mn   O 
     4     8
Direct
  0.1358016599682126  0.2500000000000000  0.0336319105732165
  0.6358016599682126  0.2500000000000000  0.4663680894267835
  0.8641983400317874  0.7500000000000000  0.9663680894267835
  0.3641983400317873  0.7500000000000000  0.5336319105732165
  0.2772918452297601  0.2500000000000000  0.3255146840022070
  0.7772918452297602  0.2500000000000000  0.1744853159977930
  0.7227081547702398  0.7500000000000000  0.6744853159977929
  0.2227081547702398  0.7500000000000000  0.8255146840022071
  0.4672158571101026  0.2500000000000000  0.7125196917142206
  0.9672158571101027  0.2500000000000000  0.7874803082857794
  0.5327841428898973  0.7500000000000000  0.2874803082857796
  0.0327841428898974  0.7500000000000000  0.2125196917142204
 
  0.00000000E+00  0.00000000E+00  0.00000000E+00
  0.00000000E+00  0.00000000E+00  0.00000000E+00
  0.00000000E+00  0.00000000E+00  0.00000000E+00
  0.00000000E+00  0.00000000E+00  0.00000000E+00
  0.00000000E+00  0.00000000E+00  0.00000000E+00
  0.00000000E+00  0.00000000E+00  0.00000000E+00
  0.00000000E+00  0.00000000E+00  0.00000000E+00
  0.00000000E+00  0.00000000E+00  0.00000000E+00
  0.00000000E+00  0.00000000E+00  0.00000000E+00
  0.00000000E+00  0.00000000E+00  0.00000000E+00
  0.00000000E+00  0.00000000E+00  0.00000000E+00
  0.00000000E+00  0.00000000E+00  0.00000000E+00
