Mn12 O26 H  (P1) ~ CONTCAR_1 (VASP)
    1.0
            10.30799961 0.00000000 0.00000000 
            0.00000000 2.85400009 0.00000000 
            0.00000000 0.00000000 30.61599922 
  26 12 1
Selective dynamics
Direct
        0.79689997 0.00000000 0.44777989  F F F
        0.20310000 0.00000000 0.55222011  F F F
        0.20626482 0.00000000 0.21955378  T T T
        0.82917690 0.00000000 0.23880629  T T T
        0.84490001 0.00000000 0.56838107  F F F
        0.15510000 0.00000000 0.43161893  F F F
        0.28789958 0.50000000 0.28214535  T T T
        0.29690000 0.50000000 0.61612326  F F F
        0.70310003 0.50000000 0.38387677  F F F
        0.34490001 0.50000000 0.40003771  F F F
        0.65509999 0.50000000 0.59996229  F F F
        0.66101235 0.50000000 0.28087744  T T T
        0.54119998 0.00000000 0.44441304  F F F
        0.45879999 0.00000000 0.55558699  F F F
        0.45460337 0.00000000 0.22190724  T T T
        0.85284221 0.00000000 0.31991559  T T T
        0.16509999 0.00000000 0.68221486  F F F
        0.83490002 0.00000000 0.65447187  F F F
        0.15997644 0.00000000 0.34655949  T T T
        0.04209276 0.50000000 0.27630377  T T T
        0.04120000 0.50000000 0.61275637  F F F
        0.95880002 0.50000000 0.38724363  F F F
        0.33489999 0.50000000 0.48612851  F F F
        0.66509998 0.50000000 0.51387149  F F F
        0.33422410 0.50000000 0.15857914  T T T
        0.43342239 0.64999998 0.13585790  T T T
        0.83469999 0.00000000 0.38293403  F F F
        0.16530000 0.00000000 0.61706597  F F F
        0.16659236 0.00000000 0.28278360  T T T
        0.62954938 0.00000000 0.24432591  T T T
        0.65230000 0.00000000 0.55565429  F F F
        0.34770000 0.00000000 0.44434568  F F F
        0.32976869 0.50000000 0.21565011  T T T
        0.33469999 0.50000000 0.55127740  F F F
        0.66530001 0.50000000 0.44872263  F F F
        0.15230000 0.50000000 0.38731095  F F F
        0.84770000 0.50000000 0.61268902  F F F
        0.85914975 0.50000000 0.27966499  T T T
        0.53342199 0.75650001 0.15858000  T T T

