con0.5
 0 
Gamma point shift
 6 4 2
 0 0 0 
