                                        
   1.00000000000000     
     0.0000000000000000    2.9217416777104370   -0.0000000000000000
     0.0000000000000000    0.0000000000000000    4.5829667762192310
     9.4235349839623552    0.0000000000000000    0.0000000000000000
     4     8
Direct
  0.2500000000000000  0.0212764069638645  0.1351065711043097
  0.2500000000000000  0.4787235930361355  0.6351065711043098
  0.7500000000000000  0.9787235930361353  0.8648934288956902
  0.7500000000000000  0.5212764069638647  0.3648934288956904
  0.2500000000000000  0.3099541302165256  0.2833624941327581
  0.2500000000000000  0.1900458697834744  0.7833624941327582
  0.7500000000000000  0.6900458697834743  0.7166375058672418
  0.7500000000000000  0.8099541302165256  0.2166375058672419
  0.2500000000000000  0.7120578025282709  0.4629199753883580
  0.2500000000000000  0.7879421974717291  0.9629199753883581
  0.7500000000000000  0.2879421974717293  0.5370800246116419
  0.7500000000000000  0.2120578025282707  0.0370800246116420
 
  0.00000000E+00  0.00000000E+00  0.00000000E+00
  0.00000000E+00  0.00000000E+00  0.00000000E+00
  0.00000000E+00  0.00000000E+00  0.00000000E+00
  0.00000000E+00  0.00000000E+00  0.00000000E+00
  0.00000000E+00  0.00000000E+00  0.00000000E+00
  0.00000000E+00  0.00000000E+00  0.00000000E+00
  0.00000000E+00  0.00000000E+00  0.00000000E+00
  0.00000000E+00  0.00000000E+00  0.00000000E+00
  0.00000000E+00  0.00000000E+00  0.00000000E+00
  0.00000000E+00  0.00000000E+00  0.00000000E+00
  0.00000000E+00  0.00000000E+00  0.00000000E+00
  0.00000000E+00  0.00000000E+00  0.00000000E+00
