(Li2 Mn15 O30)2  (P1) ~ CONTCAR (VASP)  
   1.00000000000000     
     4.6637734582761778    0.0000223437837908    0.0043529390209719
     0.0000234290673992    2.9407868281672167    0.0001634202182298
     0.0166312611571688    0.0036484581730673   68.1670994130704884
   Mn   O    Li
    30    60     1
Direct
  0.0664460795802594  0.2572149114945277  0.6039836252898761
  0.0648945303355091  0.2551046209067994  0.4692900884017848
  0.9644346203248712  0.7571438791211238  0.0225982338373327
  0.0574356659584963  0.2531516095461893  0.3342688925983624
  0.9691553293656431  0.7537956016516324  0.1604266133224189
  0.0410729721102489  0.2532990455305484  0.1977347664315626
  0.9559244378280983  0.7529525150289949  0.2974429701327416
  0.0402913883224789  0.2561904059391995  0.0600086731578983
  0.9474856947036497  0.7547066814477128  0.4327791449696916
  0.9483802241271786  0.7568437583818755  0.5673988431623022
  0.4593463125584062  0.2604407901715484  0.6733809928812103
  0.4486112912187759  0.2562276297045058  0.5366001647286527
  0.4477882754401876  0.2540818286093175  0.4019365768079456
  0.5403632200818268  0.7552045753345382  0.0915398712681315
  0.4561029088388091  0.2528487621106890  0.2662455708301076
  0.5408905320787576  0.7529582091411466  0.2291243146374777
  0.4703601153620698  0.2545135570425050  0.1289319827896444
  0.5574597992034620  0.7536134760277137  0.3652624362825102
  0.5650398832115441  0.7557185266887194  0.5000673513192327
  0.5693842726953411  0.7587681915411855  0.6349487121249839
  0.9702645219273183  0.7614779959060763  0.7064981468855976
  0.9707287331418242  0.7621919110617966  0.7696522999508646
  0.9699073340491374  0.7619025918394184  0.8327481866915706
  0.9690788565687645  0.7608704479171354  0.8959685272933802
  0.9671248180751060  0.7592170810892492  0.9593397114820744
  0.4702193374063795  0.2620375004735990  0.7380925091380179
  0.4699901800976036  0.2621391227361124  0.8011866810145466
  0.4699446908955692  0.2614717033194718  0.8643409191560236
  0.4692809950462464  0.2601246044028798  0.9276358487055771
  0.4665286064170560  0.2582307380227771  0.9910410901072596
  0.3970749551533366  0.2580105110041219  0.6216135001501192
  0.3969476927089543  0.2555842391010771  0.4862036785517604
  0.6384047871448600  0.7579758449964470  0.0050741729917229
  0.3837883292276353  0.2535143737430691  0.3517678700609164
  0.6636662086531465  0.7543141397765936  0.1413124527114039
  0.3516408083922730  0.2530036365486256  0.2166492190118102
  0.6364884720649153  0.7528190793045950  0.2794234261977760
  0.3468805692636078  0.2553694390642195  0.0793150820150803
  0.6173840699071335  0.7541486822497502  0.4157267768871878
  0.6163918484153046  0.7563018554455300  0.5505399809695303
  0.6482244226972846  0.7606253661168456  0.6859614991607970
  0.1237542170245734  0.2609653081941649  0.6891960596123670
  0.1160971109617567  0.2567100507240526  0.5535448903211938
  0.1172163389417519  0.2545695055787030  0.4190299737721598
  0.8474439480035839  0.7559435706794990  0.0724757782910737
  0.1360060476879567  0.2529179407585099  0.2843546434773601
  0.8516228241651709  0.7531801267854892  0.2103748905811350
  0.1636870755406473  0.2538977484271573  0.1482633994512303
  0.8839272659229639  0.7531942072740877  0.3478508322396021
  0.1500624292343173  0.2573285377188538  0.0098734211734660
  0.8973299270150069  0.7551637373896452  0.4831831722233201
  0.8986282564726528  0.7575754532975993  0.6181744912418689
  0.7413812396921278  0.2602049421866076  0.6514222458561930
  0.7240430690132080  0.2557497252653630  0.5154086835343664
  0.7195378878054794  0.2536483589634560  0.3804867694683698
  0.2930477814359999  0.7546208858212645  0.1146367429784256
  0.7130951777645159  0.2528818458413062  0.2438678831558471
  0.2851299997712426  0.7528612481681034  0.2516039656872021
  0.7171576789008915  0.2550048331042394  0.1059994346349287
  0.2863890756180582  0.7539747678921449  0.3867661568700674
  0.2896627361432513  0.7560766906214172  0.5212736342847024
  0.3070910417035929  0.7599799518621638  0.6571121807318735
  0.7893338453770959  0.2568662010090694  0.5828531125593973
  0.7886600582426370  0.2547207287478789  0.4481555209279178
  0.2156494570036122  0.7563388110346654  0.0455364879797226
  0.7903090322871572  0.2529438382095194  0.3125333102724679
  0.2173090412381652  0.7533789178180174  0.1833674171045249
  0.7923968482585807  0.2536210278622908  0.1749344997785975
  0.2220012670745916  0.7530950911442867  0.3192544571750336
  0.7913829133224178  0.2568747561759545  0.0373282347582981
  0.2233848716265294  0.7550121854800123  0.4539451424227564
  0.2259390931481037  0.7569605314871886  0.5886757734446851
  0.6416794769495506  0.7620098596270566  0.7519350146913973
  0.6368050940381514  0.7620434210663721  0.8153875883331688
  0.6369001019229618  0.7613063138439463  0.8785654123292534
  0.6363416474117118  0.7598981881373373  0.9418871604773358
  0.7984930862473626  0.2616203101066459  0.7197094225726656
  0.8043052696708538  0.2621293011386530  0.7838680048872497
  0.8028369986962736  0.2617750934146835  0.8469623685122630
  0.8017633301498215  0.2606770231485408  0.9102114719561122
  0.8008952034319592  0.2589629036283258  0.9736894004648367
  0.1359519974020278  0.2621440287453085  0.7551927185355203
  0.1369610462969627  0.2619342100263295  0.8185182122074943
  0.1372628901422051  0.2609644289089669  0.8818149358569213
  0.1367141153064456  0.2593605380442929  0.9452444913715046
  0.3067687546463492  0.7618926179475931  0.7232317364822817
  0.3049278514072327  0.7621413642444735  0.7868213456042124
  0.3025362502123707  0.7615370898459797  0.8501586190417397
  0.3011662257363007  0.7602474766681366  0.9135063943357005
  0.2985048737192870  0.7583822328221647  0.9770212987389627
  0.9432339496154185  0.7605822935726351  0.6658021334842891
 
  0.00000000E+00  0.00000000E+00  0.00000000E+00
  0.00000000E+00  0.00000000E+00  0.00000000E+00
  0.00000000E+00  0.00000000E+00  0.00000000E+00
  0.00000000E+00  0.00000000E+00  0.00000000E+00
  0.00000000E+00  0.00000000E+00  0.00000000E+00
  0.00000000E+00  0.00000000E+00  0.00000000E+00
  0.00000000E+00  0.00000000E+00  0.00000000E+00
  0.00000000E+00  0.00000000E+00  0.00000000E+00
  0.00000000E+00  0.00000000E+00  0.00000000E+00
  0.00000000E+00  0.00000000E+00  0.00000000E+00
  0.00000000E+00  0.00000000E+00  0.00000000E+00
  0.00000000E+00  0.00000000E+00  0.00000000E+00
  0.00000000E+00  0.00000000E+00  0.00000000E+00
  0.00000000E+00  0.00000000E+00  0.00000000E+00
  0.00000000E+00  0.00000000E+00  0.00000000E+00
  0.00000000E+00  0.00000000E+00  0.00000000E+00
  0.00000000E+00  0.00000000E+00  0.00000000E+00
  0.00000000E+00  0.00000000E+00  0.00000000E+00
  0.00000000E+00  0.00000000E+00  0.00000000E+00
  0.00000000E+00  0.00000000E+00  0.00000000E+00
  0.00000000E+00  0.00000000E+00  0.00000000E+00
  0.00000000E+00  0.00000000E+00  0.00000000E+00
  0.00000000E+00  0.00000000E+00  0.00000000E+00
  0.00000000E+00  0.00000000E+00  0.00000000E+00
  0.00000000E+00  0.00000000E+00  0.00000000E+00
  0.00000000E+00  0.00000000E+00  0.00000000E+00
  0.00000000E+00  0.00000000E+00  0.00000000E+00
  0.00000000E+00  0.00000000E+00  0.00000000E+00
  0.00000000E+00  0.00000000E+00  0.00000000E+00
  0.00000000E+00  0.00000000E+00  0.00000000E+00
  0.00000000E+00  0.00000000E+00  0.00000000E+00
  0.00000000E+00  0.00000000E+00  0.00000000E+00
  0.00000000E+00  0.00000000E+00  0.00000000E+00
  0.00000000E+00  0.00000000E+00  0.00000000E+00
  0.00000000E+00  0.00000000E+00  0.00000000E+00
  0.00000000E+00  0.00000000E+00  0.00000000E+00
  0.00000000E+00  0.00000000E+00  0.00000000E+00
  0.00000000E+00  0.00000000E+00  0.00000000E+00
  0.00000000E+00  0.00000000E+00  0.00000000E+00
  0.00000000E+00  0.00000000E+00  0.00000000E+00
  0.00000000E+00  0.00000000E+00  0.00000000E+00
  0.00000000E+00  0.00000000E+00  0.00000000E+00
  0.00000000E+00  0.00000000E+00  0.00000000E+00
  0.00000000E+00  0.00000000E+00  0.00000000E+00
  0.00000000E+00  0.00000000E+00  0.00000000E+00
  0.00000000E+00  0.00000000E+00  0.00000000E+00
  0.00000000E+00  0.00000000E+00  0.00000000E+00
  0.00000000E+00  0.00000000E+00  0.00000000E+00
  0.00000000E+00  0.00000000E+00  0.00000000E+00
  0.00000000E+00  0.00000000E+00  0.00000000E+00
  0.00000000E+00  0.00000000E+00  0.00000000E+00
  0.00000000E+00  0.00000000E+00  0.00000000E+00
  0.00000000E+00  0.00000000E+00  0.00000000E+00
  0.00000000E+00  0.00000000E+00  0.00000000E+00
  0.00000000E+00  0.00000000E+00  0.00000000E+00
  0.00000000E+00  0.00000000E+00  0.00000000E+00
  0.00000000E+00  0.00000000E+00  0.00000000E+00
  0.00000000E+00  0.00000000E+00  0.00000000E+00
  0.00000000E+00  0.00000000E+00  0.00000000E+00
  0.00000000E+00  0.00000000E+00  0.00000000E+00
  0.00000000E+00  0.00000000E+00  0.00000000E+00
  0.00000000E+00  0.00000000E+00  0.00000000E+00
  0.00000000E+00  0.00000000E+00  0.00000000E+00
  0.00000000E+00  0.00000000E+00  0.00000000E+00
  0.00000000E+00  0.00000000E+00  0.00000000E+00
  0.00000000E+00  0.00000000E+00  0.00000000E+00
  0.00000000E+00  0.00000000E+00  0.00000000E+00
  0.00000000E+00  0.00000000E+00  0.00000000E+00
  0.00000000E+00  0.00000000E+00  0.00000000E+00
  0.00000000E+00  0.00000000E+00  0.00000000E+00
  0.00000000E+00  0.00000000E+00  0.00000000E+00
  0.00000000E+00  0.00000000E+00  0.00000000E+00
  0.00000000E+00  0.00000000E+00  0.00000000E+00
  0.00000000E+00  0.00000000E+00  0.00000000E+00
  0.00000000E+00  0.00000000E+00  0.00000000E+00
  0.00000000E+00  0.00000000E+00  0.00000000E+00
  0.00000000E+00  0.00000000E+00  0.00000000E+00
  0.00000000E+00  0.00000000E+00  0.00000000E+00
  0.00000000E+00  0.00000000E+00  0.00000000E+00
  0.00000000E+00  0.00000000E+00  0.00000000E+00
  0.00000000E+00  0.00000000E+00  0.00000000E+00
  0.00000000E+00  0.00000000E+00  0.00000000E+00
  0.00000000E+00  0.00000000E+00  0.00000000E+00
  0.00000000E+00  0.00000000E+00  0.00000000E+00
  0.00000000E+00  0.00000000E+00  0.00000000E+00
  0.00000000E+00  0.00000000E+00  0.00000000E+00
  0.00000000E+00  0.00000000E+00  0.00000000E+00
  0.00000000E+00  0.00000000E+00  0.00000000E+00
  0.00000000E+00  0.00000000E+00  0.00000000E+00
  0.00000000E+00  0.00000000E+00  0.00000000E+00
  0.00000000E+00  0.00000000E+00  0.00000000E+00
