(Li2 Mn15 O30)2  (P1) ~ CONTCAR (VASP)  
   1.00000000000000     
     4.6635187436615722    0.0000218260421143    0.0043027135262064
     0.0000231005182761    2.9405320981958147    0.0001636208961766
     0.0159000612625608    0.0036530249086089   68.1630105540904339
   Mn   O    Li
    30    60     1
Direct
  0.0664419419942158  0.2572144777542141  0.6039878389353495
  0.0647795840705652  0.2551065615665472  0.4692598515461092
  0.9646131698424341  0.7571416090790334  0.0226045675763476
  0.0573658954237374  0.2531454531779317  0.3342520093724862
  0.9692005627763802  0.7537898890260589  0.1604632806467898
  0.0410306152455154  0.2532923061229017  0.1977458853223323
  0.9559351254980545  0.7529437505044067  0.2974391209226888
  0.0401887033182401  0.2561881681951789  0.0600430111786232
  0.9474767467692566  0.7547063303813323  0.4327640199852761
  0.9484812008794528  0.7568450367313043  0.5673761300824731
  0.4593122948716246  0.2604473587866512  0.6733807537461474
  0.4487069917327947  0.2562279647586845  0.5365958945946577
  0.4478767132409798  0.2540782250048347  0.4019203406378500
  0.5402638720035211  0.7552006905472179  0.0915741754483530
  0.4561212011299159  0.2528400838052515  0.2662353301882393
  0.5408343763966136  0.7529507024187907  0.2291421189185709
  0.4703907535925918  0.2545075957214366  0.1289570258860915
  0.5574620288074411  0.7536074719169611  0.3652489568280705
  0.5650089493315061  0.7557223735850763  0.5000244435741682
  0.5693935644476318  0.7587677451934922  0.6349481926081020
  0.9702189285985819  0.7614877544198078  0.7065003389355075
  0.9707013623290872  0.7622025075401763  0.7696544475364053
  0.9698988114165337  0.7619084689266852  0.8327456232574149
  0.9691334393126347  0.7608755487015854  0.8959656987655774
  0.9672750902165231  0.7592189648829532  0.9593402623756678
  0.4702330733130328  0.2620497998041289  0.7380934799151312
  0.4700015953662366  0.2621465213872395  0.8011863590677187
  0.4699451458405873  0.2614775675130205  0.8643376521863371
  0.4692360939017917  0.2601283177956971  0.9276341565407957
  0.4664396318503080  0.2582312743690175  0.9910560573985768
  0.3971223121334823  0.2580112245173986  0.6216109601248991
  0.3971418949425889  0.2555840926226852  0.4862272508874824
  0.6383923881890083  0.7579746613621419  0.0050610591165939
  0.3837893685390594  0.2535085215217640  0.3517829052123146
  0.6635950347249520  0.7543083154608523  0.1412951840485792
  0.3514094018744814  0.2529978819542900  0.2166489308557848
  0.6366631459733808  0.7528114648164529  0.2794304380657321
  0.3465227884522162  0.2553650120851398  0.0793024894404256
  0.6175452195700043  0.7541454638108164  0.4157339931882287
  0.6164697693921894  0.7563038280718686  0.5505383448464911
  0.6481590067365893  0.7606305484254194  0.6859591677265975
  0.1237092449750389  0.2609701450559765  0.6891936293532843
  0.1160538129259245  0.2567105879005107  0.5535530075113195
  0.1172071041167796  0.2545690687780979  0.4190446761329066
  0.8475499751044975  0.7559398666298655  0.0724516844917244
  0.1360609660650282  0.2529107432496419  0.2843654456349317
  0.8515673791523598  0.7531746991455983  0.2103689081903622
  0.1640184583983961  0.2538925329905374  0.1482538493028829
  0.8837376994367924  0.7531871719475407  0.3478604614086213
  0.1501193739403095  0.2573275393592527  0.0098681405396880
  0.8970438634623391  0.7551644626517271  0.4831971206654828
  0.8987084458816821  0.7575782181334558  0.6181684138694543
  0.7413496616712818  0.2602126219723517  0.6514201817182195
  0.7240460511382127  0.2557505500258382  0.5154174979872554
  0.7195145239972188  0.2536427324642743  0.3804963565064896
  0.2930612853702783  0.7546158382757677  0.1146291552197360
  0.7130717218919429  0.2528745055986014  0.2438670069431621
  0.2851535456865494  0.7528542170434759  0.2516110575966534
  0.7171001926301774  0.2549996196995482  0.1059826669204832
  0.2864011468284908  0.7539713048096932  0.3867819149929962
  0.2896492128891258  0.7560796911284310  0.5212855487378505
  0.3071126582409016  0.7599838356611344  0.6571121236911678
  0.7893779762950536  0.2568668152439669  0.5828548167208061
  0.7887182850331899  0.2547207076984958  0.4481661769269268
  0.2156329272571829  0.7563354455685992  0.0455258100637874
  0.7903172485454895  0.2529365165417061  0.3125407840896268
  0.2172681597261489  0.7533735632640263  0.1833636377380801
  0.7924183760663266  0.2536149351677928  0.1749222198653982
  0.2219905199807951  0.7530883685822717  0.3192682363251955
  0.7913568321994554  0.2568722725014085  0.0373135808223876
  0.2233453477025183  0.7550134556227160  0.4539611180880018
  0.2259401960594806  0.7569595575123711  0.5886763318894678
  0.6416590178338096  0.7620164432781887  0.7519364825760640
  0.6367707564386723  0.7620481858152029  0.8153873469852386
  0.6368923994023392  0.7613102590697109  0.8785633142449656
  0.6363318592951519  0.7599006636344569  0.9418796849712102
  0.7984814649795842  0.2616265147810690  0.7197123733491680
  0.8043429769182575  0.2621355843556814  0.7838687015439098
  0.8028640017670673  0.2617793221525542  0.8469609507919389
  0.8018122871198462  0.2606803610550481  0.9102070554943301
  0.8009796891736215  0.2589639847499595  0.9736786742177058
  0.1359349700355499  0.2621515267774288  0.7551940117774070
  0.1369351183586951  0.2619394857897159  0.8185174523981197
  0.1372583037103026  0.2609687970427921  0.8818116685926901
  0.1367680655038443  0.2593628939770231  0.9452369030769051
  0.3067661993688609  0.7619006329514454  0.7232339336663897
  0.3049425621896868  0.7621477349529878  0.7868218011137834
  0.3025655975328461  0.7615420192591601  0.8501566044691533
  0.3011720688756895  0.7602510033322660  0.9135007210863448
  0.2984645414227180  0.7583820243388103  0.9770088550191680
  0.9432316433587102  0.7605890981953730  0.6658064971901466
 
  0.00000000E+00  0.00000000E+00  0.00000000E+00
  0.00000000E+00  0.00000000E+00  0.00000000E+00
  0.00000000E+00  0.00000000E+00  0.00000000E+00
  0.00000000E+00  0.00000000E+00  0.00000000E+00
  0.00000000E+00  0.00000000E+00  0.00000000E+00
  0.00000000E+00  0.00000000E+00  0.00000000E+00
  0.00000000E+00  0.00000000E+00  0.00000000E+00
  0.00000000E+00  0.00000000E+00  0.00000000E+00
  0.00000000E+00  0.00000000E+00  0.00000000E+00
  0.00000000E+00  0.00000000E+00  0.00000000E+00
  0.00000000E+00  0.00000000E+00  0.00000000E+00
  0.00000000E+00  0.00000000E+00  0.00000000E+00
  0.00000000E+00  0.00000000E+00  0.00000000E+00
  0.00000000E+00  0.00000000E+00  0.00000000E+00
  0.00000000E+00  0.00000000E+00  0.00000000E+00
  0.00000000E+00  0.00000000E+00  0.00000000E+00
  0.00000000E+00  0.00000000E+00  0.00000000E+00
  0.00000000E+00  0.00000000E+00  0.00000000E+00
  0.00000000E+00  0.00000000E+00  0.00000000E+00
  0.00000000E+00  0.00000000E+00  0.00000000E+00
  0.00000000E+00  0.00000000E+00  0.00000000E+00
  0.00000000E+00  0.00000000E+00  0.00000000E+00
  0.00000000E+00  0.00000000E+00  0.00000000E+00
  0.00000000E+00  0.00000000E+00  0.00000000E+00
  0.00000000E+00  0.00000000E+00  0.00000000E+00
  0.00000000E+00  0.00000000E+00  0.00000000E+00
  0.00000000E+00  0.00000000E+00  0.00000000E+00
  0.00000000E+00  0.00000000E+00  0.00000000E+00
  0.00000000E+00  0.00000000E+00  0.00000000E+00
  0.00000000E+00  0.00000000E+00  0.00000000E+00
  0.00000000E+00  0.00000000E+00  0.00000000E+00
  0.00000000E+00  0.00000000E+00  0.00000000E+00
  0.00000000E+00  0.00000000E+00  0.00000000E+00
  0.00000000E+00  0.00000000E+00  0.00000000E+00
  0.00000000E+00  0.00000000E+00  0.00000000E+00
  0.00000000E+00  0.00000000E+00  0.00000000E+00
  0.00000000E+00  0.00000000E+00  0.00000000E+00
  0.00000000E+00  0.00000000E+00  0.00000000E+00
  0.00000000E+00  0.00000000E+00  0.00000000E+00
  0.00000000E+00  0.00000000E+00  0.00000000E+00
  0.00000000E+00  0.00000000E+00  0.00000000E+00
  0.00000000E+00  0.00000000E+00  0.00000000E+00
  0.00000000E+00  0.00000000E+00  0.00000000E+00
  0.00000000E+00  0.00000000E+00  0.00000000E+00
  0.00000000E+00  0.00000000E+00  0.00000000E+00
  0.00000000E+00  0.00000000E+00  0.00000000E+00
  0.00000000E+00  0.00000000E+00  0.00000000E+00
  0.00000000E+00  0.00000000E+00  0.00000000E+00
  0.00000000E+00  0.00000000E+00  0.00000000E+00
  0.00000000E+00  0.00000000E+00  0.00000000E+00
  0.00000000E+00  0.00000000E+00  0.00000000E+00
  0.00000000E+00  0.00000000E+00  0.00000000E+00
  0.00000000E+00  0.00000000E+00  0.00000000E+00
  0.00000000E+00  0.00000000E+00  0.00000000E+00
  0.00000000E+00  0.00000000E+00  0.00000000E+00
  0.00000000E+00  0.00000000E+00  0.00000000E+00
  0.00000000E+00  0.00000000E+00  0.00000000E+00
  0.00000000E+00  0.00000000E+00  0.00000000E+00
  0.00000000E+00  0.00000000E+00  0.00000000E+00
  0.00000000E+00  0.00000000E+00  0.00000000E+00
  0.00000000E+00  0.00000000E+00  0.00000000E+00
  0.00000000E+00  0.00000000E+00  0.00000000E+00
  0.00000000E+00  0.00000000E+00  0.00000000E+00
  0.00000000E+00  0.00000000E+00  0.00000000E+00
  0.00000000E+00  0.00000000E+00  0.00000000E+00
  0.00000000E+00  0.00000000E+00  0.00000000E+00
  0.00000000E+00  0.00000000E+00  0.00000000E+00
  0.00000000E+00  0.00000000E+00  0.00000000E+00
  0.00000000E+00  0.00000000E+00  0.00000000E+00
  0.00000000E+00  0.00000000E+00  0.00000000E+00
  0.00000000E+00  0.00000000E+00  0.00000000E+00
  0.00000000E+00  0.00000000E+00  0.00000000E+00
  0.00000000E+00  0.00000000E+00  0.00000000E+00
  0.00000000E+00  0.00000000E+00  0.00000000E+00
  0.00000000E+00  0.00000000E+00  0.00000000E+00
  0.00000000E+00  0.00000000E+00  0.00000000E+00
  0.00000000E+00  0.00000000E+00  0.00000000E+00
  0.00000000E+00  0.00000000E+00  0.00000000E+00
  0.00000000E+00  0.00000000E+00  0.00000000E+00
  0.00000000E+00  0.00000000E+00  0.00000000E+00
  0.00000000E+00  0.00000000E+00  0.00000000E+00
  0.00000000E+00  0.00000000E+00  0.00000000E+00
  0.00000000E+00  0.00000000E+00  0.00000000E+00
  0.00000000E+00  0.00000000E+00  0.00000000E+00
  0.00000000E+00  0.00000000E+00  0.00000000E+00
  0.00000000E+00  0.00000000E+00  0.00000000E+00
  0.00000000E+00  0.00000000E+00  0.00000000E+00
  0.00000000E+00  0.00000000E+00  0.00000000E+00
  0.00000000E+00  0.00000000E+00  0.00000000E+00
  0.00000000E+00  0.00000000E+00  0.00000000E+00
  0.00000000E+00  0.00000000E+00  0.00000000E+00
