(Mn O2)16  (P1) ~ POSCAR_9 0 0 1  surface (#1) (VASP)
    1.0
            2.83548000 0.00000000 0.00000000 
            0.00000000 48.65620000 0.00000000 
            0.12372712 0.00000000 7.20799817 
Mn O H
  16 32 1
Selective dynamics
Direct
        0.00000000 0.10276183 -0.00000000  F F F
        0.00000000 0.50000000 -0.00000000  F F F
        0.50000000 0.45034523 0.87500000  F F F
        0.50000000 0.84758340 0.87500000  T T T
        0.00000000 0.40069046 0.75000000  F F F
        -0.00000000 0.79792863 0.75000000  T T T
        0.50000000 0.35103569 0.62500000  F F F
        0.50000000 0.74827386 0.62500000  T T T
        0.00000000 0.30138091 0.50000000  F F F
        0.00000000 0.69861909 0.50000000  T T T
        0.50000000 0.25172614 0.37500000  F F F
        0.50000000 0.64896431 0.37500000  T T T
        0.00000000 0.20207137 0.25000000  F F F
        0.00000000 0.59930954 0.25000000  F F F
        0.50000000 0.15241660 0.12500000  F F F
        0.50000000 0.54965477 0.12500000  F F F
        0.00545778 0.43834126 0.70806513  F F F
        0.00545778 0.83557943 0.70806513  T T T
        0.99454222 0.46234920 0.04193487  F F F
        0.99454222 0.85958737 0.04193487  T T T
        0.50545772 0.48799603 0.83306514  F F F
        0.50545772 0.88523421 0.83306514  T T T
        0.49454228 0.41269442 0.91693486  F F F
        0.49454228 0.80993260 0.91693486  T T T
        0.00545778 0.33903171 0.45806513  F F F
        0.00545778 0.73626989 0.45806513  T T T
        0.99454222 0.36303966 0.79193487  F F F
        0.99454222 0.76027783 0.79193487  T T T
        0.50545772 0.38868649 0.58306514  F F F
        0.50545772 0.78592466 0.58306514  T T T
        0.49454228 0.31338488 0.66693486  F F F
        0.49454228 0.71062305 0.66693486  T T T
        0.00545778 0.23972217 0.20806513  F F F
        0.00545778 0.63696034 0.20806513  T T T
        0.99454222 0.26373011 0.54193487  F F F
        0.99454222 0.66096829 0.54193487  T T T
        0.50545772 0.28937695 0.33306514  F F F
        0.50545772 0.68661512 0.33306514  T T T
        0.49454228 0.21407534 0.41693486  F F F
        0.49454228 0.61131351 0.41693486  T T T
        0.00545778 0.14041263 0.95806513  F F F
        0.00545778 0.53765080 0.95806513  F F F
        0.99454222 0.16442057 0.29193487  F F F
        0.99454222 0.56165874 0.29193487  F F F
        0.50545772 0.19006740 0.08306514  F F F
        0.50545772 0.58730558 0.08306514  F F F
        0.49454228 0.11476579 0.16693486  F F F
        0.49454228 0.51200397 0.16693486  F F F
        0.65054600 0.90288500 0.87833100  T T T
