Li Mn30 O62  (P1) ~ CONTCAR (VASP)      
   1.00000000000000     
     4.5329999900000004    0.0000000000000000    0.0000000000000000
     0.0000000000000000    2.8659999400000000    0.0000000000000000
     0.0000000000000000    0.0000000000000000  100.0000000000000000
   Mn   O    Li
    30    62     1
Direct
  0.0738166928281245  0.2587297871226539  0.6190290600693018
  0.0557770676675560  0.2548208099540830  0.5259471298760090
  0.9379957132841952  0.7496756013040553  0.2177908231235719
  0.0508775209403680  0.2518161017145530  0.4324666380494691
  0.9722513622586604  0.7500139308061051  0.3126644328952679
  0.0332756316791674  0.2502172429690077  0.3381101899085621
  0.9604969638946130  0.7513833119421207  0.4073180368636571
  0.0290037874924352  0.2496825224395494  0.2428949040110240
  0.9516267357284462  0.7539755211748087  0.5009950396456944
  0.9595835191019759  0.7579196794451732  0.5942191207783836
  0.4447187767372895  0.2605829196125882  0.6650375394104131
  0.4600056859455464  0.2567642692459913  0.5726005982135547
  0.4527432325210583  0.2531374019852919  0.4792913874615863
  0.5344127657445767  0.7497344720239241  0.2650838285440642
  0.4607954703425747  0.2508911733269841  0.3854144417379644
  0.5335448573523038  0.7505486333970310  0.3600971048198147
  0.4723375896909445  0.2498261187672099  0.2905901385160377
  0.5521131902063985  0.7525005378876060  0.4542542698178451
  0.5579863354497974  0.7558653490975189  0.5476252807784974
  0.5740090676294045  0.7597447392271164  0.6404420174170440
  0.9689634158329596  0.7619767574464191  0.6890228359497499
  0.9812571777243022  0.7640333681830498  0.7350162629561083
  0.9799923045598860  0.7653025092837140  0.7784900982033420
  0.9784608716525582  0.7661230929940714  0.8221823564731636
  0.9805314620436789  0.7666301722214612  0.8664947483458221
  0.4795122680099269  0.2631840332173709  0.7133325605331393
  0.4796307242657747  0.2647498938481050  0.7567481751336942
  0.4795454090076063  0.2657630770484900  0.8002901680455636
  0.4790458390895651  0.2663935691105337  0.8442526778083703
  0.4814580272125752  0.2675620696423024  0.8886840625286041
  0.4058017084733692  0.2595510376869257  0.6308531299504310
  0.3726369888350973  0.2556603958939263  0.5386828025718131
  0.6845731701802720  0.7499076732864509  0.2025612738508400
  0.3654969037966325  0.2523758730571259  0.4453479234157740
  0.6809211086137736  0.7498562969824150  0.2987317125745932
  0.3275850844378922  0.2504858643186765  0.3519647782199939
  0.6559444627006386  0.7509722503137581  0.3941028871216687
  0.3388778488426354  0.2497223841365894  0.2564358847008563
  0.6332100488675039  0.7532718637562041  0.4885731694644235
  0.6404558361480568  0.7569568991254627  0.5818627673823116
  0.6195497658846136  0.7609448432412762  0.6756038066484820
  0.1305630577826591  0.2616801810832357  0.6783767510445173
  0.1408340970679518  0.2577182243829412  0.5851368935749335
  0.1341890922296756  0.2538242945406708  0.4919433661589636
  0.8430097379259820  0.7496856732347155  0.2520293758043053
  0.1559699334890894  0.2512943607238043  0.3987623914841123
  0.8276847693185445  0.7502677171307539  0.3463470386065666
  0.1817589855378685  0.2499794137074858  0.3046618023434888
  0.8660407942567048  0.7519303900772414  0.4415710259149535
  0.0964723091401254  0.2496283411564804  0.2076579071220195
  0.8741770855436215  0.7550003108158165  0.5351476337568357
  0.9055738290356814  0.7589027627007141  0.6287762852157073
  0.7364007385562061  0.2598812011116891  0.6511139656395954
  0.7334033215867990  0.2560080142205905  0.5578817643674725
  0.7267391174203510  0.2526202140250717  0.4645453163898168
  0.2828082459225456  0.7498096781769945  0.2809419096951018
  0.7189979520528880  0.2506070599874946  0.3699502823197705
  0.2762293676389405  0.7508190833978929  0.3756503799316278
  0.7216536878149569  0.2497493674466966  0.2748986703779437
  0.2782102799703594  0.7530150472030499  0.4691608135028389
  0.2847356677507165  0.7565809551291522  0.5625014608051657
  0.2822057423580233  0.7604025542096977  0.6546053845772661
  0.7902607043238987  0.2580615965569351  0.6046884300662825
  0.7790896858906464  0.2541332689193680  0.5113358922941060
  0.2083175634994774  0.7496768343810203  0.2328895598738825
  0.7819123487796276  0.2514538136958038  0.4174534594555226
  0.2226427059696263  0.7501748090943394  0.3285140074389332
  0.7830658862813138  0.2500459981956880  0.3223411609433313
  0.2286298685208834  0.7517282186273420  0.4224554462134122
  0.7569146263588991  0.2496677203390263  0.2280350363735906
  0.2289715369357452  0.7546667623026693  0.5157759314785295
  0.2416562145702414  0.7585754448630695  0.6086904162236308
  0.6520032731738823  0.7633183673291555  0.7225981440876623
  0.6439151900456466  0.7648428903749149  0.7666449113023788
  0.6458256051952347  0.7658203638024546  0.8101699411421066
  0.6576295629770286  0.7664191651916852  0.8536306803668765
  0.6482744939998923  0.7670463666014129  0.8984920662560043
  0.8018559941278554  0.2621834157703518  0.6991015797676567
  0.8143191602308661  0.2641520120368455  0.7447974956873225
  0.8146140230792369  0.2653806919188995  0.7883981026070757
  0.8067638887415569  0.2661632297893988  0.8318894786510427
  0.7869331048215358  0.2666212245234547  0.8753038870058916
  0.1420806847574099  0.2638807684321378  0.7246938017891296
  0.1431484188371002  0.2652057264077854  0.7684074831298986
  0.1466482681824388  0.2660647440339616  0.8123162387560612
  0.1591007226851673  0.2665682232233308  0.8569882101990913
  0.2427418018183545  0.2740073383459531  0.9039502508982764
  0.3146912597257625  0.7627611364145963  0.7016767426324790
  0.3184132604270786  0.7646162195101880  0.7465636700067151
  0.3145817451570281  0.7656918370172932  0.7903100705666830
  0.3056208122358086  0.7663448925085632  0.8345419180851721
  0.2708447966120957  0.7671872203813592  0.8802761828927572
  0.4645867969642197  0.2623411367111004  0.6891205113589933
 
  0.00000000E+00  0.00000000E+00  0.00000000E+00
  0.00000000E+00  0.00000000E+00  0.00000000E+00
  0.00000000E+00  0.00000000E+00  0.00000000E+00
  0.00000000E+00  0.00000000E+00  0.00000000E+00
  0.00000000E+00  0.00000000E+00  0.00000000E+00
  0.00000000E+00  0.00000000E+00  0.00000000E+00
  0.00000000E+00  0.00000000E+00  0.00000000E+00
  0.00000000E+00  0.00000000E+00  0.00000000E+00
  0.00000000E+00  0.00000000E+00  0.00000000E+00
  0.00000000E+00  0.00000000E+00  0.00000000E+00
  0.00000000E+00  0.00000000E+00  0.00000000E+00
  0.00000000E+00  0.00000000E+00  0.00000000E+00
  0.00000000E+00  0.00000000E+00  0.00000000E+00
  0.00000000E+00  0.00000000E+00  0.00000000E+00
  0.00000000E+00  0.00000000E+00  0.00000000E+00
  0.00000000E+00  0.00000000E+00  0.00000000E+00
  0.00000000E+00  0.00000000E+00  0.00000000E+00
  0.00000000E+00  0.00000000E+00  0.00000000E+00
  0.00000000E+00  0.00000000E+00  0.00000000E+00
  0.00000000E+00  0.00000000E+00  0.00000000E+00
  0.00000000E+00  0.00000000E+00  0.00000000E+00
  0.00000000E+00  0.00000000E+00  0.00000000E+00
  0.00000000E+00  0.00000000E+00  0.00000000E+00
  0.00000000E+00  0.00000000E+00  0.00000000E+00
  0.00000000E+00  0.00000000E+00  0.00000000E+00
  0.00000000E+00  0.00000000E+00  0.00000000E+00
  0.00000000E+00  0.00000000E+00  0.00000000E+00
  0.00000000E+00  0.00000000E+00  0.00000000E+00
  0.00000000E+00  0.00000000E+00  0.00000000E+00
  0.00000000E+00  0.00000000E+00  0.00000000E+00
  0.00000000E+00  0.00000000E+00  0.00000000E+00
  0.00000000E+00  0.00000000E+00  0.00000000E+00
  0.00000000E+00  0.00000000E+00  0.00000000E+00
  0.00000000E+00  0.00000000E+00  0.00000000E+00
  0.00000000E+00  0.00000000E+00  0.00000000E+00
  0.00000000E+00  0.00000000E+00  0.00000000E+00
  0.00000000E+00  0.00000000E+00  0.00000000E+00
  0.00000000E+00  0.00000000E+00  0.00000000E+00
  0.00000000E+00  0.00000000E+00  0.00000000E+00
  0.00000000E+00  0.00000000E+00  0.00000000E+00
  0.00000000E+00  0.00000000E+00  0.00000000E+00
  0.00000000E+00  0.00000000E+00  0.00000000E+00
  0.00000000E+00  0.00000000E+00  0.00000000E+00
  0.00000000E+00  0.00000000E+00  0.00000000E+00
  0.00000000E+00  0.00000000E+00  0.00000000E+00
  0.00000000E+00  0.00000000E+00  0.00000000E+00
  0.00000000E+00  0.00000000E+00  0.00000000E+00
  0.00000000E+00  0.00000000E+00  0.00000000E+00
  0.00000000E+00  0.00000000E+00  0.00000000E+00
  0.00000000E+00  0.00000000E+00  0.00000000E+00
  0.00000000E+00  0.00000000E+00  0.00000000E+00
  0.00000000E+00  0.00000000E+00  0.00000000E+00
  0.00000000E+00  0.00000000E+00  0.00000000E+00
  0.00000000E+00  0.00000000E+00  0.00000000E+00
  0.00000000E+00  0.00000000E+00  0.00000000E+00
  0.00000000E+00  0.00000000E+00  0.00000000E+00
  0.00000000E+00  0.00000000E+00  0.00000000E+00
  0.00000000E+00  0.00000000E+00  0.00000000E+00
  0.00000000E+00  0.00000000E+00  0.00000000E+00
  0.00000000E+00  0.00000000E+00  0.00000000E+00
  0.00000000E+00  0.00000000E+00  0.00000000E+00
  0.00000000E+00  0.00000000E+00  0.00000000E+00
  0.00000000E+00  0.00000000E+00  0.00000000E+00
  0.00000000E+00  0.00000000E+00  0.00000000E+00
  0.00000000E+00  0.00000000E+00  0.00000000E+00
  0.00000000E+00  0.00000000E+00  0.00000000E+00
  0.00000000E+00  0.00000000E+00  0.00000000E+00
  0.00000000E+00  0.00000000E+00  0.00000000E+00
  0.00000000E+00  0.00000000E+00  0.00000000E+00
  0.00000000E+00  0.00000000E+00  0.00000000E+00
  0.00000000E+00  0.00000000E+00  0.00000000E+00
  0.00000000E+00  0.00000000E+00  0.00000000E+00
  0.00000000E+00  0.00000000E+00  0.00000000E+00
  0.00000000E+00  0.00000000E+00  0.00000000E+00
  0.00000000E+00  0.00000000E+00  0.00000000E+00
  0.00000000E+00  0.00000000E+00  0.00000000E+00
  0.00000000E+00  0.00000000E+00  0.00000000E+00
  0.00000000E+00  0.00000000E+00  0.00000000E+00
  0.00000000E+00  0.00000000E+00  0.00000000E+00
  0.00000000E+00  0.00000000E+00  0.00000000E+00
  0.00000000E+00  0.00000000E+00  0.00000000E+00
  0.00000000E+00  0.00000000E+00  0.00000000E+00
  0.00000000E+00  0.00000000E+00  0.00000000E+00
  0.00000000E+00  0.00000000E+00  0.00000000E+00
  0.00000000E+00  0.00000000E+00  0.00000000E+00
  0.00000000E+00  0.00000000E+00  0.00000000E+00
  0.00000000E+00  0.00000000E+00  0.00000000E+00
  0.00000000E+00  0.00000000E+00  0.00000000E+00
  0.00000000E+00  0.00000000E+00  0.00000000E+00
  0.00000000E+00  0.00000000E+00  0.00000000E+00
  0.00000000E+00  0.00000000E+00  0.00000000E+00
  0.00000000E+00  0.00000000E+00  0.00000000E+00
  0.00000000E+00  0.00000000E+00  0.00000000E+00
