Li Mn30 O62  (P1) ~ CONTCAR (VASP)      
   1.00000000000000     
     4.5329999900000004    0.0000000000000000    0.0000000000000000
     0.0000000000000000    2.8659999400000000    0.0000000000000000
     0.0000000000000000    0.0000000000000000  100.0000000000000000
   Mn   O    Li
    30    62     1
Direct
  0.0738166928281213  0.2587297871226540  0.6190290600693028
  0.0557770676675530  0.2548208099540846  0.5259471298760097
  0.9379957132841963  0.7496756013040564  0.2177908231235741
  0.0508775209403692  0.2518161017145525  0.4324666380494706
  0.9722513622586610  0.7500139308061080  0.3126644328952665
  0.0332756316791647  0.2502172429690058  0.3381101899085645
  0.9604969638946131  0.7513833119421209  0.4073180368636590
  0.0290037874924369  0.2496825224395507  0.2428949040110252
  0.9516267357284458  0.7539755211748096  0.5009950396456921
  0.9595835191019739  0.7579196794451698  0.5942191207783846
  0.4447187767372927  0.2605829196125860  0.6650375394104122
  0.4600056859455435  0.2567642692459903  0.5726005982135544
  0.4527432325210614  0.2531374019852893  0.4792913874615857
  0.5344127657445773  0.7497344720239240  0.2650838285440664
  0.4607954703425766  0.2508911733269838  0.3854144417379628
  0.5335448573523045  0.7505486333970293  0.3600971048198113
  0.4723375896909460  0.2498261187672106  0.2905901385160344
  0.5521131902063974  0.7525005378876032  0.4542542698178464
  0.5579863354497959  0.7558653490975220  0.5476252807784965
  0.5740090676294043  0.7597447392271129  0.6404420174170427
  0.9689634158329621  0.7619767574464160  0.6890228359497517
  0.9812571777243018  0.7640333681830485  0.7350162629561063
  0.9799923045598844  0.7653025092837124  0.7784900982033386
  0.9784608716525591  0.7661230929940698  0.8221823564731663
  0.9805314620436794  0.7666301722214646  0.8664947483458243
  0.4795122680099286  0.2631840332173678  0.7133325605331371
  0.4796307242657712  0.2647498938481045  0.7567481751336923
  0.4795454090076096  0.2657630770484889  0.8002901680455634
  0.4790458390895629  0.2663935691105351  0.8442526778083695
  0.4814580272125757  0.2675620696423017  0.8886840625286057
  0.4058017084733702  0.2595510376869255  0.6308531299504316
  0.3726369888350956  0.2556603958939269  0.5386828025718142
  0.6845731701802700  0.7499076732864525  0.2025612738508390
  0.3654969037966339  0.2523758730571283  0.4453479234157710
  0.6809211086137729  0.7498562969824142  0.2987317125745964
  0.3275850844378948  0.2504858643186774  0.3519647782199918
  0.6559444627006369  0.7509722503137578  0.3941028871216680
  0.3388778488426378  0.2497223841365920  0.2564358847008538
  0.6332100488675038  0.7532718637562075  0.4885731694644220
  0.6404558361480562  0.7569568991254654  0.5818627673823127
  0.6195497658846162  0.7609448432412733  0.6756038066484796
  0.1305630577826603  0.2616801810832390  0.6783767510445186
  0.1408340970679553  0.2577182243829431  0.5851368935749353
  0.1341890922296746  0.2538242945406721  0.4919433661589646
  0.8430097379259809  0.7496856732347161  0.2520293758043088
  0.1559699334890861  0.2512943607238057  0.3987623914841115
  0.8276847693185464  0.7502677171307571  0.3463470386065650
  0.1817589855378667  0.2499794137074832  0.3046618023434890
  0.8660407942567065  0.7519303900772381  0.4415710259149569
  0.0964723091401239  0.2496283411564782  0.2076579071220196
  0.8741770855436245  0.7550003108158196  0.5351476337568383
  0.9055738290356810  0.7589027627007140  0.6287762852157106
  0.7364007385562028  0.2598812011116912  0.6511139656395927
  0.7334033215867990  0.2560080142205923  0.5578817643674728
  0.7267391174203504  0.2526202140250726  0.4645453163898159
  0.2828082459225441  0.7498096781769925  0.2809419096950996
  0.7189979520528887  0.2506070599874968  0.3699502823197676
  0.2762293676389400  0.7508190833978932  0.3756503799316280
  0.7216536878149591  0.2497493674466995  0.2748986703779417
  0.2782102799703589  0.7530150472030521  0.4691608135028389
  0.2847356677507172  0.7565809551291548  0.5625014608051662
  0.2822057423580211  0.7604025542096976  0.6546053845772679
  0.7902607043238957  0.2580615965569376  0.6046884300662849
  0.7790896858906475  0.2541332689193657  0.5113358922941049
  0.2083175634994759  0.7496768343810176  0.2328895598738830
  0.7819123487796306  0.2514538136958052  0.4174534594555213
  0.2226427059696238  0.7501748090943426  0.3285140074389321
  0.7830658862813142  0.2500459981956901  0.3223411609433329
  0.2286298685208865  0.7517282186273389  0.4224554462134105
  0.7569146263588963  0.2496677203390292  0.2280350363735882
  0.2289715369357473  0.7546667623026680  0.5157759314785316
  0.2416562145702437  0.7585754448630719  0.6086904162236341
  0.6520032731738822  0.7633183673291575  0.7225981440876597
  0.6439151900456457  0.7648428903749150  0.7666449113023752
  0.6458256051952338  0.7658203638024540  0.8101699411421059
  0.6576295629770286  0.7664191651916886  0.8536306803668783
  0.6482744939998928  0.7670463666014129  0.8984920662560067
  0.8018559941278580  0.2621834157703506  0.6991015797676561
  0.8143191602308628  0.2641520120368476  0.7447974956873246
  0.8146140230792381  0.2653806919188972  0.7883981026070753
  0.8067638887415591  0.2661632297893976  0.8318894786510395
  0.7869331048215358  0.2666212245234529  0.8753038870058917
  0.1420806847574099  0.2638807684321360  0.7246938017891286
  0.1431484188371024  0.2652057264077876  0.7684074831298954
  0.1466482681824377  0.2660647440339584  0.8123162387560577
  0.1591007226851686  0.2665682232233334  0.8569882101990886
  0.2427418018183556  0.2740073383459513  0.9039502508982729
  0.3146912597257649  0.7627611364145974  0.7016767426324777
  0.3184132604270819  0.7646162195101911  0.7465636700067129
  0.3145817451570259  0.7656918370172917  0.7903100705666822
  0.3056208122358078  0.7663448925085620  0.8345419180851701
  0.2708447966120978  0.7671872203813624  0.8802761828927571
  0.4645867969642209  0.2623411367110988  0.6891205113589909
 
  0.00000000E+00  0.00000000E+00  0.00000000E+00
  0.00000000E+00  0.00000000E+00  0.00000000E+00
  0.00000000E+00  0.00000000E+00  0.00000000E+00
  0.00000000E+00  0.00000000E+00  0.00000000E+00
  0.00000000E+00  0.00000000E+00  0.00000000E+00
  0.00000000E+00  0.00000000E+00  0.00000000E+00
  0.00000000E+00  0.00000000E+00  0.00000000E+00
  0.00000000E+00  0.00000000E+00  0.00000000E+00
  0.00000000E+00  0.00000000E+00  0.00000000E+00
  0.00000000E+00  0.00000000E+00  0.00000000E+00
  0.00000000E+00  0.00000000E+00  0.00000000E+00
  0.00000000E+00  0.00000000E+00  0.00000000E+00
  0.00000000E+00  0.00000000E+00  0.00000000E+00
  0.00000000E+00  0.00000000E+00  0.00000000E+00
  0.00000000E+00  0.00000000E+00  0.00000000E+00
  0.00000000E+00  0.00000000E+00  0.00000000E+00
  0.00000000E+00  0.00000000E+00  0.00000000E+00
  0.00000000E+00  0.00000000E+00  0.00000000E+00
  0.00000000E+00  0.00000000E+00  0.00000000E+00
  0.00000000E+00  0.00000000E+00  0.00000000E+00
  0.00000000E+00  0.00000000E+00  0.00000000E+00
  0.00000000E+00  0.00000000E+00  0.00000000E+00
  0.00000000E+00  0.00000000E+00  0.00000000E+00
  0.00000000E+00  0.00000000E+00  0.00000000E+00
  0.00000000E+00  0.00000000E+00  0.00000000E+00
  0.00000000E+00  0.00000000E+00  0.00000000E+00
  0.00000000E+00  0.00000000E+00  0.00000000E+00
  0.00000000E+00  0.00000000E+00  0.00000000E+00
  0.00000000E+00  0.00000000E+00  0.00000000E+00
  0.00000000E+00  0.00000000E+00  0.00000000E+00
  0.00000000E+00  0.00000000E+00  0.00000000E+00
  0.00000000E+00  0.00000000E+00  0.00000000E+00
  0.00000000E+00  0.00000000E+00  0.00000000E+00
  0.00000000E+00  0.00000000E+00  0.00000000E+00
  0.00000000E+00  0.00000000E+00  0.00000000E+00
  0.00000000E+00  0.00000000E+00  0.00000000E+00
  0.00000000E+00  0.00000000E+00  0.00000000E+00
  0.00000000E+00  0.00000000E+00  0.00000000E+00
  0.00000000E+00  0.00000000E+00  0.00000000E+00
  0.00000000E+00  0.00000000E+00  0.00000000E+00
  0.00000000E+00  0.00000000E+00  0.00000000E+00
  0.00000000E+00  0.00000000E+00  0.00000000E+00
  0.00000000E+00  0.00000000E+00  0.00000000E+00
  0.00000000E+00  0.00000000E+00  0.00000000E+00
  0.00000000E+00  0.00000000E+00  0.00000000E+00
  0.00000000E+00  0.00000000E+00  0.00000000E+00
  0.00000000E+00  0.00000000E+00  0.00000000E+00
  0.00000000E+00  0.00000000E+00  0.00000000E+00
  0.00000000E+00  0.00000000E+00  0.00000000E+00
  0.00000000E+00  0.00000000E+00  0.00000000E+00
  0.00000000E+00  0.00000000E+00  0.00000000E+00
  0.00000000E+00  0.00000000E+00  0.00000000E+00
  0.00000000E+00  0.00000000E+00  0.00000000E+00
  0.00000000E+00  0.00000000E+00  0.00000000E+00
  0.00000000E+00  0.00000000E+00  0.00000000E+00
  0.00000000E+00  0.00000000E+00  0.00000000E+00
  0.00000000E+00  0.00000000E+00  0.00000000E+00
  0.00000000E+00  0.00000000E+00  0.00000000E+00
  0.00000000E+00  0.00000000E+00  0.00000000E+00
  0.00000000E+00  0.00000000E+00  0.00000000E+00
  0.00000000E+00  0.00000000E+00  0.00000000E+00
  0.00000000E+00  0.00000000E+00  0.00000000E+00
  0.00000000E+00  0.00000000E+00  0.00000000E+00
  0.00000000E+00  0.00000000E+00  0.00000000E+00
  0.00000000E+00  0.00000000E+00  0.00000000E+00
  0.00000000E+00  0.00000000E+00  0.00000000E+00
  0.00000000E+00  0.00000000E+00  0.00000000E+00
  0.00000000E+00  0.00000000E+00  0.00000000E+00
  0.00000000E+00  0.00000000E+00  0.00000000E+00
  0.00000000E+00  0.00000000E+00  0.00000000E+00
  0.00000000E+00  0.00000000E+00  0.00000000E+00
  0.00000000E+00  0.00000000E+00  0.00000000E+00
  0.00000000E+00  0.00000000E+00  0.00000000E+00
  0.00000000E+00  0.00000000E+00  0.00000000E+00
  0.00000000E+00  0.00000000E+00  0.00000000E+00
  0.00000000E+00  0.00000000E+00  0.00000000E+00
  0.00000000E+00  0.00000000E+00  0.00000000E+00
  0.00000000E+00  0.00000000E+00  0.00000000E+00
  0.00000000E+00  0.00000000E+00  0.00000000E+00
  0.00000000E+00  0.00000000E+00  0.00000000E+00
  0.00000000E+00  0.00000000E+00  0.00000000E+00
  0.00000000E+00  0.00000000E+00  0.00000000E+00
  0.00000000E+00  0.00000000E+00  0.00000000E+00
  0.00000000E+00  0.00000000E+00  0.00000000E+00
  0.00000000E+00  0.00000000E+00  0.00000000E+00
  0.00000000E+00  0.00000000E+00  0.00000000E+00
  0.00000000E+00  0.00000000E+00  0.00000000E+00
  0.00000000E+00  0.00000000E+00  0.00000000E+00
  0.00000000E+00  0.00000000E+00  0.00000000E+00
  0.00000000E+00  0.00000000E+00  0.00000000E+00
  0.00000000E+00  0.00000000E+00  0.00000000E+00
  0.00000000E+00  0.00000000E+00  0.00000000E+00
  0.00000000E+00  0.00000000E+00  0.00000000E+00
