(Mn O2)4  (P1) ~ POSCAR_1 (VASP)        
   1.00000000000000     
     5.6701826160510889    0.1168729157718893   -0.0297111239046262
    -2.9373023217651557    4.8520959138152486    0.0068219927460762
    -1.4600495030474698    0.6941707959380324    7.0254440030698211
   Mn   O 
     4     8
Direct
 -0.0000000000000000  0.0000000000000000 -0.0000000000000000
 -0.0000000000000000  0.5000000000000000 -0.0000000000000000
  0.5000000000000000  0.0000000000000000 -0.0000000000000000
  0.5000000000000000  0.5000000000000000 -0.0000000000000000
  0.1922917377950582  0.8131660380690393  0.1367163035826027
  0.8077082622049417  0.1868339619309606  0.8632837064173980
  0.1922917377950582  0.3131659780690345  0.1367163035826027
  0.8077082622049417  0.6868340219309657  0.8632837064173980
  0.6922917377950583  0.8131660380690393  0.1367163035826027
  0.3077082622049417  0.1868339619309606  0.8632837064173980
  0.6922917377950583  0.3131659780690345  0.1367163035826027
  0.3077082622049417  0.6868340219309657  0.8632837064173980
 
  0.00000000E+00  0.00000000E+00  0.00000000E+00
  0.00000000E+00  0.00000000E+00  0.00000000E+00
  0.00000000E+00  0.00000000E+00  0.00000000E+00
  0.00000000E+00  0.00000000E+00  0.00000000E+00
  0.00000000E+00  0.00000000E+00  0.00000000E+00
  0.00000000E+00  0.00000000E+00  0.00000000E+00
  0.00000000E+00  0.00000000E+00  0.00000000E+00
  0.00000000E+00  0.00000000E+00  0.00000000E+00
  0.00000000E+00  0.00000000E+00  0.00000000E+00
  0.00000000E+00  0.00000000E+00  0.00000000E+00
  0.00000000E+00  0.00000000E+00  0.00000000E+00
  0.00000000E+00  0.00000000E+00  0.00000000E+00
