mno2                                    
   1.00000000000000     
     0.0000000000000000    2.8623954516783887    0.0000000000000000
    10.4240780438196410    0.0000000000000000   -0.1645453712078449
     0.2436111405273218    0.0000000000000000  -15.4405510794668288
   Mn   O    Li
    12    24    11
Direct
  0.2500000000000000  0.1321885574088905  0.6558906597902268
  0.2500000000000000  0.1171751151276774  0.3232236372702616
  0.2500000000000000  0.1339154391139885  0.9868591852745524
  0.2500000000000000  0.6268261699767546  0.5100946634316318
  0.2500000000000000  0.6305948481232099  0.1808616331631733
  0.2500000000000000  0.6507662972202206  0.8452023382426384
  0.7500000000000000  0.8479592803300970  0.3503854355871595
  0.7500000000000000  0.8672106645528084  0.0166276140467758
  0.7500000000000000  0.8705008048189963  0.6837730061380594
  0.7500000000000000  0.3412964312706981  0.4827665104757885
  0.7500000000000000  0.3647875266077668  0.1499369162696395
  0.7500000000000000  0.3782487934732737  0.8173239022169732
  0.2500000000000000  0.2929565348819716  0.5628780771350280
  0.2500000000000000  0.2944322912550109  0.2214570867660830
  0.2500000000000000  0.3074330492227870  0.8887548745872145
  0.2500000000000000  0.7947511087668749  0.6253146982270185
  0.2500000000000000  0.7880852143585000  0.2745817290773443
  0.2500000000000000  0.8037662288925589  0.9424603904224415
  0.7500000000000000  0.6748800185956882  0.4325534100543401
  0.7500000000000000  0.6975876027332738  0.1074102739488794
  0.7500000000000000  0.7247014403628447  0.7730153103774877
  0.7500000000000000  0.1836070086425612  0.3936256599365455
  0.7500000000000000  0.2019852330631493  0.0568686976454749
  0.7500000000000000  0.2058986803970385  0.7236492907579813
  0.2500000000000000  0.4238328463849286  0.4158760527839380
  0.2500000000000000  0.4453380207129942  0.0804386999008734
  0.2500000000000000  0.4595554289647811  0.7503089212511296
  0.2500000000000000  0.9349391655629199  0.4103131224642201
  0.2500000000000000  0.9463120154584757  0.0817200761687275
  0.2500000000000000  0.9493410133531961  0.7501400238181116
  0.7500000000000000  0.5583109051419863  0.5830803973556993
  0.7500000000000000  0.5435396946286546  0.2455639346421627
  0.7500000000000000  0.5640875287423245  0.9090167313171987
  0.7500000000000000  0.0262286948820348  0.6072010448064150
  0.7500000000000000  0.0483354707413257  0.2514872335210990
  0.7500000000000000  0.0604398609877972  0.9176680828253887
  0.2500000000000000  0.1123654489731797  0.1574149720249328
  0.2500000000000000  0.1263240412029203  0.8228798398735717
  0.2500000000000000  0.6131860321359018  0.6740979667105597
  0.2500000000000000  0.5903272097868854  0.3458030780169658
  0.2500000000000000  0.6132109123772628  0.0139872441652720
  0.7500000000000000  0.0174239158747073  0.4801637039700347
  0.7500000000000000  0.8886509658027220  0.1848077670200392
  0.7500000000000000  0.9021490222811713  0.8500427382194892
  0.7500000000000000  0.3713412446738976  0.3168617039888632
  0.7500000000000000  0.3882936241509104  0.9852065783604864
  0.7500000000000000  0.3901645379824169  0.6477153456220850
 
  0.00000000E+00  0.00000000E+00  0.00000000E+00
  0.00000000E+00  0.00000000E+00  0.00000000E+00
  0.00000000E+00  0.00000000E+00  0.00000000E+00
  0.00000000E+00  0.00000000E+00  0.00000000E+00
  0.00000000E+00  0.00000000E+00  0.00000000E+00
  0.00000000E+00  0.00000000E+00  0.00000000E+00
  0.00000000E+00  0.00000000E+00  0.00000000E+00
  0.00000000E+00  0.00000000E+00  0.00000000E+00
  0.00000000E+00  0.00000000E+00  0.00000000E+00
  0.00000000E+00  0.00000000E+00  0.00000000E+00
  0.00000000E+00  0.00000000E+00  0.00000000E+00
  0.00000000E+00  0.00000000E+00  0.00000000E+00
  0.00000000E+00  0.00000000E+00  0.00000000E+00
  0.00000000E+00  0.00000000E+00  0.00000000E+00
  0.00000000E+00  0.00000000E+00  0.00000000E+00
  0.00000000E+00  0.00000000E+00  0.00000000E+00
  0.00000000E+00  0.00000000E+00  0.00000000E+00
  0.00000000E+00  0.00000000E+00  0.00000000E+00
  0.00000000E+00  0.00000000E+00  0.00000000E+00
  0.00000000E+00  0.00000000E+00  0.00000000E+00
  0.00000000E+00  0.00000000E+00  0.00000000E+00
  0.00000000E+00  0.00000000E+00  0.00000000E+00
  0.00000000E+00  0.00000000E+00  0.00000000E+00
  0.00000000E+00  0.00000000E+00  0.00000000E+00
  0.00000000E+00  0.00000000E+00  0.00000000E+00
  0.00000000E+00  0.00000000E+00  0.00000000E+00
  0.00000000E+00  0.00000000E+00  0.00000000E+00
  0.00000000E+00  0.00000000E+00  0.00000000E+00
  0.00000000E+00  0.00000000E+00  0.00000000E+00
  0.00000000E+00  0.00000000E+00  0.00000000E+00
  0.00000000E+00  0.00000000E+00  0.00000000E+00
  0.00000000E+00  0.00000000E+00  0.00000000E+00
  0.00000000E+00  0.00000000E+00  0.00000000E+00
  0.00000000E+00  0.00000000E+00  0.00000000E+00
  0.00000000E+00  0.00000000E+00  0.00000000E+00
  0.00000000E+00  0.00000000E+00  0.00000000E+00
  0.00000000E+00  0.00000000E+00  0.00000000E+00
  0.00000000E+00  0.00000000E+00  0.00000000E+00
  0.00000000E+00  0.00000000E+00  0.00000000E+00
  0.00000000E+00  0.00000000E+00  0.00000000E+00
  0.00000000E+00  0.00000000E+00  0.00000000E+00
  0.00000000E+00  0.00000000E+00  0.00000000E+00
  0.00000000E+00  0.00000000E+00  0.00000000E+00
  0.00000000E+00  0.00000000E+00  0.00000000E+00
  0.00000000E+00  0.00000000E+00  0.00000000E+00
  0.00000000E+00  0.00000000E+00  0.00000000E+00
  0.00000000E+00  0.00000000E+00  0.00000000E+00
