Mn12 O25  (P1) ~ CONTCAR (VASP)
    1.0
            10.30799961 0.00000000 0.00000000 
            0.00000000 2.85400009 0.00000000 
            0.00000000 0.00000000 30.61599922 
  25 12
Selective dynamics
Direct
        0.79689997 0.00000000 0.44777989  F F F
        0.20310000 0.00000000 0.55222011  F F F
        0.21335530 0.00000000 0.22007120  T T T
        0.83620989 0.00000000 0.23832373  T T T
        0.84490001 0.00000000 0.56838107  F F F
        0.15510000 0.00000000 0.43161893  F F F
        0.28687143 0.50000000 0.28616431  T T T
        0.29690000 0.50000000 0.61612326  F F F
        0.70310003 0.50000000 0.38387677  F F F
        0.34490001 0.50000000 0.40003771  F F F
        0.65509999 0.50000000 0.59996229  F F F
        0.66233510 0.50000000 0.27924228  T T T
        0.54119998 0.00000000 0.44441304  F F F
        0.45879999 0.00000000 0.55558699  F F F
        0.46211719 0.00000000 0.21290544  T T T
        0.85196650 0.00000000 0.32000628  T T T
        0.16509999 0.00000000 0.68221486  F F F
        0.83490002 0.00000000 0.65447187  F F F
        0.15767126 0.00000000 0.34675759  T T T
        0.04357711 0.50000000 0.27646926  T T T
        0.04120000 0.50000000 0.61275637  F F F
        0.95880002 0.50000000 0.38724363  F F F
        0.33489999 0.50000000 0.48612851  F F F
        0.66509998 0.50000000 0.51387149  F F F
        0.32747001 0.50000000 0.15068001  T T T
        0.83469999 0.00000000 0.38293403  F F F
        0.16530000 0.00000000 0.61706597  F F F
        0.16601177 0.00000000 0.28343239  T T T
        0.63260937 0.00000000 0.24186395  T T T
        0.65230000 0.00000000 0.55565429  F F F
        0.34770000 0.00000000 0.44434568  F F F
        0.33859748 0.50000000 0.21968684  T T T
        0.33469999 0.50000000 0.55127740  F F F
        0.66530001 0.50000000 0.44872263  F F F
        0.15230000 0.50000000 0.38731095  F F F
        0.84770000 0.50000000 0.61268902  F F F
        0.85919493 0.50000000 0.27935278  T T T

