(Mn O2)16  (P1) ~ POSCAR_3 1 0 0  surfac
   1.00000000000000     
     9.6945899999999998    0.0000000000000000    0.0000000000000000
     0.0000000000000000    2.8412999999999999    0.0000000000000000
     0.0000000000000000    0.0000000000000000   29.3978000000000002
   O    Mn
    33    16
Selective dynamics
Direct
  0.3410985755697565  0.5000000000000000  0.1596803650059137   T   T   T
  0.1558913026649229 -0.0000000000000000  0.4319998332883824   T   T   T
  0.1558710999999988  0.0000000000000000  0.7621268600000022   F   F   F
  0.6585272617127883  0.5000000000000000  0.2669302304272553   T   T   T
  0.6558710999999988  0.5000000000000000  0.5971672399999974   F   F   F
  0.8445219024415579  0.0000000000000000  0.2362925350828983   T   T   T
  0.8441289000000012  0.0000000000000000  0.5677923900000010   F   F   F
  0.3442368418139566  0.5000000000000000  0.4021182362809402   T   T   T
  0.3441289000000012  0.5000000000000000  0.7327520099999987   F   F   F
  0.7979886258718769  0.0000000000000000  0.4480453776721122   T   T   T
  0.7964066600000024  0.0000000000000000  0.7785174600000033   F   F   F
  0.2925426879253626  0.5000000000000000  0.2832393014559290   T   T   T
  0.2964066600000024  0.5000000000000000  0.6135578399999986   F   F   F
  0.2066998147651988 -0.0000000000000000  0.2207580869733284   T   T   T
  0.2035933399999976  0.0000000000000000  0.5514017799999991   F   F   F
  0.7046773115835800  0.5000000000000000  0.3854245068267932   T   T   T
  0.7035933399999976  0.5000000000000000  0.7163614099999975   F   F   F
  0.1623649052297953 -0.0000000000000000  0.3479081193088924   T   T   T
  0.1613142900000000  0.0000000000000000  0.6780752600000000   F   F   F
  0.6579643418759865  0.5000000000000000  0.1839748987564496   T   T   T
  0.6613142900000000  0.5000000000000000  0.5131156300000015   F   F   F
  0.8387256360816610  0.0000000000000000  0.3208168048267184   T   T   T
  0.8386857100000000  0.0000000000000000  0.6518439900000033   F   F   F
  0.3386556103622083  0.5000000000000000  0.4864827194264151   T   T   T
  0.3386857100000000  0.5000000000000000  0.8168036100000009   F   F   F
  0.5425445961440695  0.0000000000000000  0.4447530497585858   T   T   T
  0.5414096800000010  0.0000000000000000  0.7750918999999996   F   F   F
  0.0405768508027823  0.5000000000000000  0.2805407133078826   T   T   T
  0.0414096800000010  0.5000000000000000  0.6101322800000020   F   F   F
  0.4567576328373978  0.0000000000000000  0.2271300835721984   T   T   T
  0.4585903199999990  0.0000000000000000  0.5548273400000028   F   F   F
  0.9598761398149117  0.5000000000000000  0.3876008452807213   T   T   T
  0.9585903199999990  0.5000000000000000  0.7197869700000012   F   F   F
  0.3475819378494042  0.0000000000000000  0.4445493168614548   T   T   T
  0.3477854699999980  0.0000000000000000  0.7751120499999971   F   F   F
  0.8478720792947790  0.5000000000000000  0.2789815796722207   T   T   T
  0.8477854699999980  0.5000000000000000  0.6101524299999994   F   F   F
  0.6540391935047690 -0.0000000000000000  0.2220097496716499   T   T   T
  0.6522145300000020  0.0000000000000000  0.5548071999999991   F   F   F
  0.1510867976777011  0.5000000000000000  0.3894160052342581   T   T   T
  0.1522145300000020  0.5000000000000000  0.7197668199999967   F   F   F
  0.8332704467968073 -0.0000000000000000  0.3838368493438423   T   T   T
  0.8324314999999984  0.0000000000000000  0.7148769699999988   F   F   F
  0.3353427019018650  0.5000000000000000  0.2140291761990716   T   T   T
  0.3324314999999984  0.5000000000000000  0.5499173500000012   F   F   F
  0.1694551226266585  0.0000000000000000  0.2845603437724877   T   T   T
  0.1675685000000016  0.0000000000000000  0.6150422700000036   F   F   F
  0.6684838386796405  0.5000000000000000  0.4492024549737385   T   T   T
  0.6675685000000016  0.5000000000000000  0.7800018900000012   F   F   F
 
  0.00000000E+00  0.00000000E+00  0.00000000E+00
  0.00000000E+00  0.00000000E+00  0.00000000E+00
  0.00000000E+00  0.00000000E+00  0.00000000E+00
  0.00000000E+00  0.00000000E+00  0.00000000E+00
  0.00000000E+00  0.00000000E+00  0.00000000E+00
  0.00000000E+00  0.00000000E+00  0.00000000E+00
  0.00000000E+00  0.00000000E+00  0.00000000E+00
  0.00000000E+00  0.00000000E+00  0.00000000E+00
  0.00000000E+00  0.00000000E+00  0.00000000E+00
  0.00000000E+00  0.00000000E+00  0.00000000E+00
  0.00000000E+00  0.00000000E+00  0.00000000E+00
  0.00000000E+00  0.00000000E+00  0.00000000E+00
  0.00000000E+00  0.00000000E+00  0.00000000E+00
  0.00000000E+00  0.00000000E+00  0.00000000E+00
  0.00000000E+00  0.00000000E+00  0.00000000E+00
  0.00000000E+00  0.00000000E+00  0.00000000E+00
  0.00000000E+00  0.00000000E+00  0.00000000E+00
  0.00000000E+00  0.00000000E+00  0.00000000E+00
  0.00000000E+00  0.00000000E+00  0.00000000E+00
  0.00000000E+00  0.00000000E+00  0.00000000E+00
  0.00000000E+00  0.00000000E+00  0.00000000E+00
  0.00000000E+00  0.00000000E+00  0.00000000E+00
  0.00000000E+00  0.00000000E+00  0.00000000E+00
  0.00000000E+00  0.00000000E+00  0.00000000E+00
  0.00000000E+00  0.00000000E+00  0.00000000E+00
  0.00000000E+00  0.00000000E+00  0.00000000E+00
  0.00000000E+00  0.00000000E+00  0.00000000E+00
  0.00000000E+00  0.00000000E+00  0.00000000E+00
  0.00000000E+00  0.00000000E+00  0.00000000E+00
  0.00000000E+00  0.00000000E+00  0.00000000E+00
  0.00000000E+00  0.00000000E+00  0.00000000E+00
  0.00000000E+00  0.00000000E+00  0.00000000E+00
  0.00000000E+00  0.00000000E+00  0.00000000E+00
  0.00000000E+00  0.00000000E+00  0.00000000E+00
  0.00000000E+00  0.00000000E+00  0.00000000E+00
  0.00000000E+00  0.00000000E+00  0.00000000E+00
  0.00000000E+00  0.00000000E+00  0.00000000E+00
  0.00000000E+00  0.00000000E+00  0.00000000E+00
  0.00000000E+00  0.00000000E+00  0.00000000E+00
  0.00000000E+00  0.00000000E+00  0.00000000E+00
  0.00000000E+00  0.00000000E+00  0.00000000E+00
  0.00000000E+00  0.00000000E+00  0.00000000E+00
  0.00000000E+00  0.00000000E+00  0.00000000E+00
  0.00000000E+00  0.00000000E+00  0.00000000E+00
  0.00000000E+00  0.00000000E+00  0.00000000E+00
  0.00000000E+00  0.00000000E+00  0.00000000E+00
  0.00000000E+00  0.00000000E+00  0.00000000E+00
  0.00000000E+00  0.00000000E+00  0.00000000E+00
  0.00000000E+00  0.00000000E+00  0.00000000E+00
