Automatic mesh
0
Gamma
  2  9  1
  0.  0.  0.

