(Mn O2)16  (P1) ~ POSCAR_7_P1 2 0 1  surface_1 (#1) (VASP)
    1.0
            12.90230000 0.00000000 0.00000000 
            0.00000000 2.83680000 0.00000000 
            0.00000000 0.00000000 22.90230000 
Mn O H
  16 33 1
Selective dynamics
Direct
        0.43449285 0.00000000 0.33172854  T T T
        0.07630881 0.00000000 0.25183473  T T T
        0.31550715 0.50000000 0.24574948  T T T
        0.67369119 0.50000000 0.32564329  T T T
        0.68449285 0.00000000 0.75425052  F F F
        0.32630881 0.00000000 0.67435671  F F F
        0.56550715 0.50000000 0.66827146  F F F
        0.92369119 0.50000000 0.74816527  F F F
        0.93449285 0.00000000 0.61340986  F F F
        0.57630881 0.00000000 0.53351605  F F F
        0.81550715 0.50000000 0.52743080  F F F
        0.17369119 0.50000000 0.60732461  F F F
        0.18449285 0.00000000 0.47256920  F F F
        0.82630881 0.00000000 0.39267539  T T T
        0.06550715 0.50000000 0.38659014  T T T
        0.42369119 0.50000000 0.46648395  F F F
        0.43226725 0.00000000 0.41269265  T T T
        0.22002459 0.00000000 0.25058091  T T T
        0.31773275 0.50000000 0.72814801  F F F
        0.52997541 0.50000000 0.32689711  T T T
        0.68047801 0.00000000 0.37985607  T T T
        0.41173785 0.00000000 0.24957292  T T T
        0.06773399 0.50000000 0.20256358  T T T
        0.33826215 0.50000000 0.32790511  T T T
        0.68226725 0.00000000 0.27185199  T T T
        0.47002459 0.00000000 0.67310289  F F F
        0.56773275 0.50000000 0.58730735  F F F
        0.77997541 0.50000000 0.74941909  F F F
        0.93047801 0.00000000 0.23901542  T T T
        0.66173785 0.00000000 0.67209489  F F F
        0.31952199 0.50000000 0.62014393  F F F
        0.58826215 0.50000000 0.75042708  F F F
        0.93226725 0.00000000 0.69437396  F F F
        0.72002459 0.00000000 0.53226223  F F F
        0.81773275 0.50000000 0.44646669  T T T
        0.02997541 0.50000000 0.60857843  F F F
        0.18047801 0.00000000 0.66153739  F F F
        0.91173785 0.00000000 0.53125424  F F F
        0.56952199 0.50000000 0.47930327  F F F
        0.83826215 0.50000000 0.60958642  F F F
        0.18226725 0.00000000 0.55353331  F F F
        0.97002459 0.00000000 0.39142157  T T T
        0.06773275 0.50000000 0.30562604  T T T
        0.27997541 0.50000000 0.46773777  F F F
        0.43047801 0.00000000 0.52069673  F F F
        0.16173785 0.00000000 0.39041358  T T T
        0.81952199 0.50000000 0.33846261  T T T
        0.08826215 0.50000000 0.46874576  F F F
        0.31550700 0.50000000 0.16602500  T T T
        0.26931600 0.50000000 0.13206600  T T T
