Li Mn30 O62  (P1) ~ CONTCAR (VASP)      
   1.00000000000000     
     4.5329999900000004    0.0000000000000000    0.0000000000000000
     0.0000000000000000    2.8659999400000000    0.0000000000000000
     0.0000000000000000    0.0000000000000000  100.0000000000000000
   Mn   O    Li
    30    62     1
Direct
  0.0768478319848853  0.2631163904315628  0.6213740379833723
  0.0808714805898418  0.2594992021603701  0.5281991135660604
  0.9896522029580481  0.7590339269734798  0.2145325220724317
  0.0302154722807870  0.2573987425830779  0.4337395815997880
  0.9721758695483089  0.7525328372399471  0.3099319504101246
  0.0060779638616424  0.2521623276262730  0.3356006011975410
  0.9851106659023898  0.7568205476533336  0.4053220242970568
  0.0019441473441404  0.2579510363989996  0.2400349201531498
  0.9617887120170963  0.7590115974931777  0.5032958110811734
  0.9598626400589652  0.7626910180106847  0.5963686759645768
  0.4719862584353010  0.2632362080170267  0.6684079570541925
  0.4590172962855803  0.2616351426470516  0.5747081888732382
  0.4604294097016464  0.2584844608809860  0.4815640992185237
  0.5038563965491747  0.7554830580203458  0.2621193802347364
  0.4897781092892544  0.2545854775076748  0.3833569895210687
  0.5089427802832205  0.7527470409395818  0.3576246004767540
  0.4741601948027707  0.2544188488143462  0.2878540457403034
  0.5364193355435063  0.7581436710698881  0.4563589054294184
  0.5805033852240484  0.7606238511417303  0.5497983345923743
  0.5769456413305178  0.7632620070971612  0.6431906969764043
  0.9724774119830641  0.7629466645202712  0.6904071494069868
  0.9746754548960865  0.7624560810665670  0.7346541719788817
  0.9763750619452836  0.7626920049751647  0.7789615361805957
  0.9766211215443121  0.7631746578410201  0.8233794366717078
  0.9805266787393379  0.7636072002725740  0.8678435198357448
  0.4728600242864687  0.2626389330517895  0.7125159896974864
  0.4752309653494464  0.2624914120869093  0.7568014263721139
  0.4763684242786539  0.2629230213498772  0.8011495957480577
  0.4732778779398430  0.2634280426343523  0.8456040422055366
  0.4489205445598188  0.2636054136461468  0.8900231009697066
  0.4011947471880646  0.2632366380193290  0.6337052452547809
  0.4125057859576060  0.2603813784500062  0.5400367634464516
  0.7934181831819132  0.7560265786703440  0.1976981164748608
  0.3293345699704133  0.2581367903207834  0.4480160955101766
  0.6935069969810712  0.7541424166523285  0.2956046321437853
  0.2850433727219084  0.2525134403529208  0.3504296796955373
  0.7214677734242940  0.7550963916993396  0.3903645361124291
  0.2786380583327031  0.2558271436567310  0.2549484238813804
  0.6390701809522596  0.7585499720098809  0.4908485704392973
  0.6294456382228972  0.7618303202550933  0.5843300118418995
  0.6518538294208795  0.7631971078337330  0.6776608984579084
  0.1429171377923666  0.2629987979387991  0.6805328207807548
  0.1292155186036652  0.2625113500530034  0.5866638138571432
  0.1369958719552002  0.2588967383680867  0.4938479118506081
  0.7799421887983513  0.7576564180133190  0.2475805936201070
  0.2193937171143290  0.2564966498366417  0.3986224834595475
  0.7855485536206430  0.7521798387221850  0.3432680902235745
  0.1941644608229822  0.2527686681231458  0.3026338040776011
  0.7916325745213939  0.7575493825897723  0.4404842417892212
  0.1784608920339465  0.2594262065378032  0.2053772198303321
  0.9120227977352542  0.7596440696264679  0.5378612230777193
  0.9011452433520262  0.7631622803682632  0.6308087414699912
  0.7480280012988985  0.2632697087783313  0.6535453771804001
  0.7451330479185430  0.2607970426444552  0.5603385575546653
  0.7251835919505112  0.2582228724038913  0.4661252328021490
  0.2741953674282485  0.7545502019085006  0.2788233133330138
  0.7116941425003489  0.2530709182814448  0.3667903134705881
  0.2850425256346583  0.7541486778240483  0.3745350259205438
  0.7038965666216299  0.2551415263852022  0.2714676352942291
  0.2798046027433401  0.7584122533696274  0.4716123171297681
  0.2942830313034079  0.7614480610221293  0.5640973351783884
  0.3011361165468571  0.7632614623923502  0.6579653818872089
  0.7937265553998998  0.2627904601155038  0.6068630725476041
  0.7950326957690237  0.2590899204243300  0.5137687061717813
  0.2084120697269256  0.7581313978176993  0.2311563949471349
  0.7700687678254496  0.2569776878490728  0.4138147114532202
  0.2052820328251244  0.7521463892818403  0.3265516448514560
  0.7737339185609073  0.2523543488264082  0.3193329311325357
  0.1939588249159883  0.7573398451594855  0.4229017839559575
  0.7766814584544690  0.2585625384495174  0.2233892611437653
  0.2460749975660264  0.7593844182243430  0.5176376641068501
  0.2435562694767768  0.7630723073958805  0.6108303563819888
  0.6433289103018538  0.7625957986733383  0.7223336422595139
  0.6459277739376432  0.7625174835378488  0.7666189437548070
  0.6462304592107913  0.7629572138893010  0.8110027738781369
  0.6397764500280587  0.7634560732234306  0.8556285955936502
  0.5864368829564128  0.7636197927265158  0.9003583008022602
  0.8031399375804540  0.2628848930662713  0.7002022564664117
  0.8053438955944188  0.2624435386495705  0.7444802772763950
  0.8076569694683329  0.2627112717963342  0.7888421268593220
  0.8071846861960879  0.2632103656710783  0.8332644641080762
  0.8244741042357830  0.2636014416514527  0.8785233518292870
  0.1432474259890171  0.2624789998508774  0.7247561012236119
  0.1452572857907199  0.2626499488606129  0.7690699358822926
  0.1452176634455782  0.2631240466614315  0.8134258110083579
  0.1315855634133669  0.2635566018835931  0.8572544114945657
  0.0971979552872710  0.2634659583162318  0.8986137276460298
  0.3045195848812341  0.7626841906278230  0.7025765577996879
  0.3057437387017785  0.7624575700683494  0.7469145141267006
  0.3085255620270146  0.7628721795550319  0.7911911346487486
  0.3098786903816375  0.7633885473543245  0.8355020236365931
  0.3249068334428671  0.7636072554709656  0.8784242928753727
  0.5800055204450487  0.7565383376622279  0.4232014775826585
 
  0.00000000E+00  0.00000000E+00  0.00000000E+00
  0.00000000E+00  0.00000000E+00  0.00000000E+00
  0.00000000E+00  0.00000000E+00  0.00000000E+00
  0.00000000E+00  0.00000000E+00  0.00000000E+00
  0.00000000E+00  0.00000000E+00  0.00000000E+00
  0.00000000E+00  0.00000000E+00  0.00000000E+00
  0.00000000E+00  0.00000000E+00  0.00000000E+00
  0.00000000E+00  0.00000000E+00  0.00000000E+00
  0.00000000E+00  0.00000000E+00  0.00000000E+00
  0.00000000E+00  0.00000000E+00  0.00000000E+00
  0.00000000E+00  0.00000000E+00  0.00000000E+00
  0.00000000E+00  0.00000000E+00  0.00000000E+00
  0.00000000E+00  0.00000000E+00  0.00000000E+00
  0.00000000E+00  0.00000000E+00  0.00000000E+00
  0.00000000E+00  0.00000000E+00  0.00000000E+00
  0.00000000E+00  0.00000000E+00  0.00000000E+00
  0.00000000E+00  0.00000000E+00  0.00000000E+00
  0.00000000E+00  0.00000000E+00  0.00000000E+00
  0.00000000E+00  0.00000000E+00  0.00000000E+00
  0.00000000E+00  0.00000000E+00  0.00000000E+00
  0.00000000E+00  0.00000000E+00  0.00000000E+00
  0.00000000E+00  0.00000000E+00  0.00000000E+00
  0.00000000E+00  0.00000000E+00  0.00000000E+00
  0.00000000E+00  0.00000000E+00  0.00000000E+00
  0.00000000E+00  0.00000000E+00  0.00000000E+00
  0.00000000E+00  0.00000000E+00  0.00000000E+00
  0.00000000E+00  0.00000000E+00  0.00000000E+00
  0.00000000E+00  0.00000000E+00  0.00000000E+00
  0.00000000E+00  0.00000000E+00  0.00000000E+00
  0.00000000E+00  0.00000000E+00  0.00000000E+00
  0.00000000E+00  0.00000000E+00  0.00000000E+00
  0.00000000E+00  0.00000000E+00  0.00000000E+00
  0.00000000E+00  0.00000000E+00  0.00000000E+00
  0.00000000E+00  0.00000000E+00  0.00000000E+00
  0.00000000E+00  0.00000000E+00  0.00000000E+00
  0.00000000E+00  0.00000000E+00  0.00000000E+00
  0.00000000E+00  0.00000000E+00  0.00000000E+00
  0.00000000E+00  0.00000000E+00  0.00000000E+00
  0.00000000E+00  0.00000000E+00  0.00000000E+00
  0.00000000E+00  0.00000000E+00  0.00000000E+00
  0.00000000E+00  0.00000000E+00  0.00000000E+00
  0.00000000E+00  0.00000000E+00  0.00000000E+00
  0.00000000E+00  0.00000000E+00  0.00000000E+00
  0.00000000E+00  0.00000000E+00  0.00000000E+00
  0.00000000E+00  0.00000000E+00  0.00000000E+00
  0.00000000E+00  0.00000000E+00  0.00000000E+00
  0.00000000E+00  0.00000000E+00  0.00000000E+00
  0.00000000E+00  0.00000000E+00  0.00000000E+00
  0.00000000E+00  0.00000000E+00  0.00000000E+00
  0.00000000E+00  0.00000000E+00  0.00000000E+00
  0.00000000E+00  0.00000000E+00  0.00000000E+00
  0.00000000E+00  0.00000000E+00  0.00000000E+00
  0.00000000E+00  0.00000000E+00  0.00000000E+00
  0.00000000E+00  0.00000000E+00  0.00000000E+00
  0.00000000E+00  0.00000000E+00  0.00000000E+00
  0.00000000E+00  0.00000000E+00  0.00000000E+00
  0.00000000E+00  0.00000000E+00  0.00000000E+00
  0.00000000E+00  0.00000000E+00  0.00000000E+00
  0.00000000E+00  0.00000000E+00  0.00000000E+00
  0.00000000E+00  0.00000000E+00  0.00000000E+00
  0.00000000E+00  0.00000000E+00  0.00000000E+00
  0.00000000E+00  0.00000000E+00  0.00000000E+00
  0.00000000E+00  0.00000000E+00  0.00000000E+00
  0.00000000E+00  0.00000000E+00  0.00000000E+00
  0.00000000E+00  0.00000000E+00  0.00000000E+00
  0.00000000E+00  0.00000000E+00  0.00000000E+00
  0.00000000E+00  0.00000000E+00  0.00000000E+00
  0.00000000E+00  0.00000000E+00  0.00000000E+00
  0.00000000E+00  0.00000000E+00  0.00000000E+00
  0.00000000E+00  0.00000000E+00  0.00000000E+00
  0.00000000E+00  0.00000000E+00  0.00000000E+00
  0.00000000E+00  0.00000000E+00  0.00000000E+00
  0.00000000E+00  0.00000000E+00  0.00000000E+00
  0.00000000E+00  0.00000000E+00  0.00000000E+00
  0.00000000E+00  0.00000000E+00  0.00000000E+00
  0.00000000E+00  0.00000000E+00  0.00000000E+00
  0.00000000E+00  0.00000000E+00  0.00000000E+00
  0.00000000E+00  0.00000000E+00  0.00000000E+00
  0.00000000E+00  0.00000000E+00  0.00000000E+00
  0.00000000E+00  0.00000000E+00  0.00000000E+00
  0.00000000E+00  0.00000000E+00  0.00000000E+00
  0.00000000E+00  0.00000000E+00  0.00000000E+00
  0.00000000E+00  0.00000000E+00  0.00000000E+00
  0.00000000E+00  0.00000000E+00  0.00000000E+00
  0.00000000E+00  0.00000000E+00  0.00000000E+00
  0.00000000E+00  0.00000000E+00  0.00000000E+00
  0.00000000E+00  0.00000000E+00  0.00000000E+00
  0.00000000E+00  0.00000000E+00  0.00000000E+00
  0.00000000E+00  0.00000000E+00  0.00000000E+00
  0.00000000E+00  0.00000000E+00  0.00000000E+00
  0.00000000E+00  0.00000000E+00  0.00000000E+00
  0.00000000E+00  0.00000000E+00  0.00000000E+00
  0.00000000E+00  0.00000000E+00  0.00000000E+00
