Li Mn30 O62  (P1) ~ CONTCAR (VASP)      
   1.00000000000000     
     4.5329999900000004    0.0000000000000000    0.0000000000000000
     0.0000000000000000    2.8659999400000000    0.0000000000000000
     0.0000000000000000    0.0000000000000000  100.0000000000000000
   Mn   O    Li
    30    62     1
Direct
  0.0768478319848873  0.2631163904315648  0.6213740379833695
  0.0808714805898424  0.2594992021603719  0.5281991135660595
  0.9896522029580499  0.7590339269734777  0.2145325220724333
  0.0302154722807885  0.2573987425830766  0.4337395815997882
  0.9721758695483068  0.7525328372399491  0.3099319504101227
  0.0060779638616431  0.2521623276262744  0.3356006011975418
  0.9851106659023864  0.7568205476533314  0.4053220242970575
  0.0019441473441398  0.2579510363989986  0.2400349201531530
  0.9617887120170927  0.7590115974931769  0.5032958110811754
  0.9598626400589635  0.7626910180106866  0.5963686759645770
  0.4719862584353003  0.2632362080170284  0.6684079570541915
  0.4590172962855837  0.2616351426470521  0.5747081888732416
  0.4604294097016448  0.2584844608809895  0.4815640992185247
  0.5038563965491780  0.7554830580203457  0.2621193802347391
  0.4897781092892564  0.2545854775076767  0.3833569895210697
  0.5089427802832176  0.7527470409395814  0.3576246004767543
  0.4741601948027739  0.2544188488143452  0.2878540457403009
  0.5364193355435072  0.7581436710698869  0.4563589054294176
  0.5805033852240475  0.7606238511417268  0.5497983345923755
  0.5769456413305211  0.7632620070971615  0.6431906969764013
  0.9724774119830608  0.7629466645202735  0.6904071494069839
  0.9746754548960850  0.7624560810665646  0.7346541719788847
  0.9763750619452826  0.7626920049751637  0.7789615361805946
  0.9766211215443115  0.7631746578410209  0.8233794366717080
  0.9805266787393350  0.7636072002725762  0.8678435198357447
  0.4728600242864697  0.2626389330517872  0.7125159896974831
  0.4752309653494442  0.2624914120869105  0.7568014263721159
  0.4763684242786537  0.2629230213498752  0.8011495957480594
  0.4732778779398460  0.2634280426343500  0.8456040422055365
  0.4489205445598212  0.2636054136461475  0.8900231009697050
  0.4011947471880626  0.2632366380193293  0.6337052452547814
  0.4125057859576035  0.2603813784500052  0.5400367634464509
  0.7934181831819113  0.7560265786703431  0.1976981164748636
  0.3293345699704128  0.2581367903207799  0.4480160955101794
  0.6935069969810684  0.7541424166523270  0.2956046321437854
  0.2850433727219079  0.2525134403529213  0.3504296796955375
  0.7214677734242975  0.7550963916993423  0.3903645361124307
  0.2786380583327008  0.2558271436567308  0.2549484238813806
  0.6390701809522588  0.7585499720098824  0.4908485704392958
  0.6294456382229002  0.7618303202550940  0.5843300118418990
  0.6518538294208794  0.7631971078337348  0.6776608984579053
  0.1429171377923649  0.2629987979387969  0.6805328207807579
  0.1292155186036661  0.2625113500530031  0.5866638138571464
  0.1369958719552016  0.2588967383680871  0.4938479118506093
  0.7799421887983486  0.7576564180133217  0.2475805936201098
  0.2193937171143318  0.2564966498366402  0.3986224834595469
  0.7855485536206399  0.7521798387221845  0.3432680902235776
  0.1941644608229829  0.2527686681231487  0.3026338040776014
  0.7916325745213945  0.7575493825897732  0.4404842417892216
  0.1784608920339485  0.2594262065378061  0.2053772198303348
  0.9120227977352545  0.7596440696264710  0.5378612230777193
  0.9011452433520287  0.7631622803682636  0.6308087414699907
  0.7480280012988952  0.2632697087783316  0.6535453771804034
  0.7451330479185444  0.2607970426444527  0.5603385575546687
  0.7251835919505147  0.2582228724038889  0.4661252328021522
  0.2741953674282498  0.7545502019084992  0.2788233133330172
  0.7116941425003521  0.2530709182814447  0.3667903134705872
  0.2850425256346550  0.7541486778240495  0.3745350259205465
  0.7038965666216279  0.2551415263852021  0.2714676352942327
  0.2798046027433381  0.7584122533696293  0.4716123171297713
  0.2942830313034097  0.7614480610221301  0.5640973351783891
  0.3011361165468544  0.7632614623923473  0.6579653818872067
  0.7937265553999032  0.2627904601155072  0.6068630725476011
  0.7950326957690222  0.2590899204243334  0.5137687061717819
  0.2084120697269259  0.7581313978176973  0.2311563949471364
  0.7700687678254478  0.2569776878490737  0.4138147114532185
  0.2052820328251220  0.7521463892818421  0.3265516448514538
  0.7737339185609107  0.2523543488264070  0.3193329311325369
  0.1939588249159867  0.7573398451594878  0.4229017839559575
  0.7766814584544666  0.2585625384495146  0.2233892611437682
  0.2460749975660230  0.7593844182243438  0.5176376641068535
  0.2435562694767744  0.7630723073958836  0.6108303563819856
  0.6433289103018556  0.7625957986733360  0.7223336422595141
  0.6459277739376403  0.7625174835378510  0.7666189437548073
  0.6462304592107885  0.7629572138893033  0.8110027738781387
  0.6397764500280606  0.7634560732234285  0.8556285955936485
  0.5864368829564107  0.7636197927265176  0.9003583008022579
  0.8031399375804538  0.2628848930662691  0.7002022564664130
  0.8053438955944223  0.2624435386495693  0.7444802772763917
  0.8076569694683325  0.2627112717963363  0.7888421268593242
  0.8071846861960877  0.2632103656710768  0.8332644641080753
  0.8244741042357835  0.2636014416514503  0.8785233518292899
  0.1432474259890164  0.2624789998508775  0.7247561012236098
  0.1452572857907199  0.2626499488606148  0.7690699358822951
  0.1452176634455795  0.2631240466614333  0.8134258110083565
  0.1315855634133702  0.2635566018835957  0.8572544114945653
  0.0971979552872702  0.2634659583162291  0.8986137276460313
  0.3045195848812344  0.7626841906278233  0.7025765577996868
  0.3057437387017813  0.7624575700683460  0.7469145141266981
  0.3085255620270119  0.7628721795550296  0.7911911346487495
  0.3098786903816377  0.7633885473543250  0.8355020236365897
  0.3249068334428685  0.7636072554709690  0.8784242928753700
  0.5800055204450463  0.7565383376622262  0.4232014775826606
 
  0.00000000E+00  0.00000000E+00  0.00000000E+00
  0.00000000E+00  0.00000000E+00  0.00000000E+00
  0.00000000E+00  0.00000000E+00  0.00000000E+00
  0.00000000E+00  0.00000000E+00  0.00000000E+00
  0.00000000E+00  0.00000000E+00  0.00000000E+00
  0.00000000E+00  0.00000000E+00  0.00000000E+00
  0.00000000E+00  0.00000000E+00  0.00000000E+00
  0.00000000E+00  0.00000000E+00  0.00000000E+00
  0.00000000E+00  0.00000000E+00  0.00000000E+00
  0.00000000E+00  0.00000000E+00  0.00000000E+00
  0.00000000E+00  0.00000000E+00  0.00000000E+00
  0.00000000E+00  0.00000000E+00  0.00000000E+00
  0.00000000E+00  0.00000000E+00  0.00000000E+00
  0.00000000E+00  0.00000000E+00  0.00000000E+00
  0.00000000E+00  0.00000000E+00  0.00000000E+00
  0.00000000E+00  0.00000000E+00  0.00000000E+00
  0.00000000E+00  0.00000000E+00  0.00000000E+00
  0.00000000E+00  0.00000000E+00  0.00000000E+00
  0.00000000E+00  0.00000000E+00  0.00000000E+00
  0.00000000E+00  0.00000000E+00  0.00000000E+00
  0.00000000E+00  0.00000000E+00  0.00000000E+00
  0.00000000E+00  0.00000000E+00  0.00000000E+00
  0.00000000E+00  0.00000000E+00  0.00000000E+00
  0.00000000E+00  0.00000000E+00  0.00000000E+00
  0.00000000E+00  0.00000000E+00  0.00000000E+00
  0.00000000E+00  0.00000000E+00  0.00000000E+00
  0.00000000E+00  0.00000000E+00  0.00000000E+00
  0.00000000E+00  0.00000000E+00  0.00000000E+00
  0.00000000E+00  0.00000000E+00  0.00000000E+00
  0.00000000E+00  0.00000000E+00  0.00000000E+00
  0.00000000E+00  0.00000000E+00  0.00000000E+00
  0.00000000E+00  0.00000000E+00  0.00000000E+00
  0.00000000E+00  0.00000000E+00  0.00000000E+00
  0.00000000E+00  0.00000000E+00  0.00000000E+00
  0.00000000E+00  0.00000000E+00  0.00000000E+00
  0.00000000E+00  0.00000000E+00  0.00000000E+00
  0.00000000E+00  0.00000000E+00  0.00000000E+00
  0.00000000E+00  0.00000000E+00  0.00000000E+00
  0.00000000E+00  0.00000000E+00  0.00000000E+00
  0.00000000E+00  0.00000000E+00  0.00000000E+00
  0.00000000E+00  0.00000000E+00  0.00000000E+00
  0.00000000E+00  0.00000000E+00  0.00000000E+00
  0.00000000E+00  0.00000000E+00  0.00000000E+00
  0.00000000E+00  0.00000000E+00  0.00000000E+00
  0.00000000E+00  0.00000000E+00  0.00000000E+00
  0.00000000E+00  0.00000000E+00  0.00000000E+00
  0.00000000E+00  0.00000000E+00  0.00000000E+00
  0.00000000E+00  0.00000000E+00  0.00000000E+00
  0.00000000E+00  0.00000000E+00  0.00000000E+00
  0.00000000E+00  0.00000000E+00  0.00000000E+00
  0.00000000E+00  0.00000000E+00  0.00000000E+00
  0.00000000E+00  0.00000000E+00  0.00000000E+00
  0.00000000E+00  0.00000000E+00  0.00000000E+00
  0.00000000E+00  0.00000000E+00  0.00000000E+00
  0.00000000E+00  0.00000000E+00  0.00000000E+00
  0.00000000E+00  0.00000000E+00  0.00000000E+00
  0.00000000E+00  0.00000000E+00  0.00000000E+00
  0.00000000E+00  0.00000000E+00  0.00000000E+00
  0.00000000E+00  0.00000000E+00  0.00000000E+00
  0.00000000E+00  0.00000000E+00  0.00000000E+00
  0.00000000E+00  0.00000000E+00  0.00000000E+00
  0.00000000E+00  0.00000000E+00  0.00000000E+00
  0.00000000E+00  0.00000000E+00  0.00000000E+00
  0.00000000E+00  0.00000000E+00  0.00000000E+00
  0.00000000E+00  0.00000000E+00  0.00000000E+00
  0.00000000E+00  0.00000000E+00  0.00000000E+00
  0.00000000E+00  0.00000000E+00  0.00000000E+00
  0.00000000E+00  0.00000000E+00  0.00000000E+00
  0.00000000E+00  0.00000000E+00  0.00000000E+00
  0.00000000E+00  0.00000000E+00  0.00000000E+00
  0.00000000E+00  0.00000000E+00  0.00000000E+00
  0.00000000E+00  0.00000000E+00  0.00000000E+00
  0.00000000E+00  0.00000000E+00  0.00000000E+00
  0.00000000E+00  0.00000000E+00  0.00000000E+00
  0.00000000E+00  0.00000000E+00  0.00000000E+00
  0.00000000E+00  0.00000000E+00  0.00000000E+00
  0.00000000E+00  0.00000000E+00  0.00000000E+00
  0.00000000E+00  0.00000000E+00  0.00000000E+00
  0.00000000E+00  0.00000000E+00  0.00000000E+00
  0.00000000E+00  0.00000000E+00  0.00000000E+00
  0.00000000E+00  0.00000000E+00  0.00000000E+00
  0.00000000E+00  0.00000000E+00  0.00000000E+00
  0.00000000E+00  0.00000000E+00  0.00000000E+00
  0.00000000E+00  0.00000000E+00  0.00000000E+00
  0.00000000E+00  0.00000000E+00  0.00000000E+00
  0.00000000E+00  0.00000000E+00  0.00000000E+00
  0.00000000E+00  0.00000000E+00  0.00000000E+00
  0.00000000E+00  0.00000000E+00  0.00000000E+00
  0.00000000E+00  0.00000000E+00  0.00000000E+00
  0.00000000E+00  0.00000000E+00  0.00000000E+00
  0.00000000E+00  0.00000000E+00  0.00000000E+00
  0.00000000E+00  0.00000000E+00  0.00000000E+00
  0.00000000E+00  0.00000000E+00  0.00000000E+00
