Automatic mesh
0
Gamma
  9  1  4
  0.  0.  0.

