(Mn O2)4  (P1) ~ POSCAR_1 (VASP)
    1.0
            5.90259981 0.00000000 0.00000000 
            -3.16031753 4.99333569 0.00000000 
            -1.49852118 0.74931403 7.14006445 
  4 8
Direct
        0.00000000 0.00000000 0.00000000
        0.00000000 0.50000000 0.00000000
        0.50000000 0.00000000 0.00000000
        0.50000000 0.50000000 0.00000000
        0.19430000 0.81335002 0.13959999
        0.80570000 0.18664998 0.86040002
        0.19430000 0.31334996 0.13959999
        0.80570000 0.68665004 0.86040002
        0.69430000 0.81335002 0.13959999
        0.30570000 0.18664998 0.86040002
        0.69430000 0.31334996 0.13959999
        0.30570000 0.68665004 0.86040002

