(Mn O2)8  (I4/m) ~  (Pearson #1102438)_1
   1.00000000000000     
    -4.8993619022317576   -4.9024388589713492    1.4382383388525488
    -4.8722904062902419    4.8753988735486287   -1.4382383388525488
     4.8722904062902419   -4.8753988735486287   -1.4382383388525488
   O    Mn
     8     4
Direct
  0.6394932865489154  0.8441219518814754  0.7953713346674400
  0.3605067134510847  0.1558780481185246  0.2046286653325600
  0.0478128818359964  0.2032767828357829  0.8445360990002134
  0.9521871181640035  0.7967232171642171  0.1554639009997865
  0.3797525903305271  0.8382112930192350  0.5415412973112922
  0.6202474096694729  0.1617887069807649  0.4584587026887078
  0.2907587402772620  0.4573676658787500  0.8333910743985049
  0.7092412597227380  0.5426323341212498  0.1666089256014951
  0.4854263530579999  0.6517074342472770  0.8337189188107160
  0.5145736469419999  0.3482925657527229  0.1662810811892841
  0.8194447454033363  0.1673958936018117  0.6520488518015245
  0.1805552545966635  0.8326041063981883  0.3479511481984752
 
  0.00000000E+00  0.00000000E+00  0.00000000E+00
  0.00000000E+00  0.00000000E+00  0.00000000E+00
  0.00000000E+00  0.00000000E+00  0.00000000E+00
  0.00000000E+00  0.00000000E+00  0.00000000E+00
  0.00000000E+00  0.00000000E+00  0.00000000E+00
  0.00000000E+00  0.00000000E+00  0.00000000E+00
  0.00000000E+00  0.00000000E+00  0.00000000E+00
  0.00000000E+00  0.00000000E+00  0.00000000E+00
  0.00000000E+00  0.00000000E+00  0.00000000E+00
  0.00000000E+00  0.00000000E+00  0.00000000E+00
  0.00000000E+00  0.00000000E+00  0.00000000E+00
  0.00000000E+00  0.00000000E+00  0.00000000E+00
