Li Mn30 O62  (P1) ~ CONTCAR (VASP)      
   1.00000000000000     
     4.5329999900000004    0.0000000000000000    0.0000000000000000
     0.0000000000000000    2.8659999400000000    0.0000000000000000
     0.0000000000000000    0.0000000000000000  100.0000000000000000
   Mn   O    Li
    30    62     1
Direct
  0.0765625593427544  0.2587542993332264  0.6196395261507917
  0.0581331048718638  0.2555499766497036  0.5260902288551392
  0.9482913471220442  0.7497807303799604  0.2161818268886151
  0.0490094131181920  0.2524652276242634  0.4323001495472951
  0.9779822690552749  0.7504806675658671  0.3119875948465634
  0.0279386731587010  0.2507419519376768  0.3375659460164258
  0.9688882413660451  0.7519614058507713  0.4070342819433250
  0.0311114651327600  0.2498537848900710  0.2420694582566867
  0.9541915837883153  0.7547726753540189  0.5010795630473552
  0.9607682567782447  0.7580013813097182  0.5946593433263487
  0.4565596969211754  0.2609040160557896  0.6662771294225394
  0.4599306448403979  0.2571391040816522  0.5729253702602861
  0.4540435733616235  0.2538539257626411  0.4793032694973434
  0.5329166075279659  0.7500249420920397  0.2643038843159573
  0.4682851121551508  0.2515098958033022  0.3850380039354278
  0.5275900043748152  0.7511560831740454  0.3595905399736097
  0.4779445044475494  0.2501932671667220  0.2898803568918353
  0.5490951036718030  0.7531567519311011  0.4541788285637196
  0.5592376475086951  0.7563967648728678  0.5478580471800143
  0.5772168226858341  0.7599104426968140  0.6412636329207189
  0.9544425649633794  0.7619132196381955  0.6880761544410419
  0.9552611989877775  0.7633977902466853  0.7319520380762299
  0.9691413008312963  0.7644594206921127  0.7783476562300820
  0.9905931162328940  0.7656407901393720  0.8249932129559170
  0.0040213704831658  0.7666378053736906  0.8695294023155000
  0.4566944288466601  0.2627048059361599  0.7099885394373118
  0.4566658117696889  0.2639974339080737  0.7538900575901124
  0.4839249453366676  0.2650276611199942  0.8028574462545777
  0.4896050842584785  0.2661397795593530  0.8472295846655342
  0.4809502999242454  0.2669972527982765  0.8916528350777000
  0.4074057733109697  0.2596761436604211  0.6316280193510906
  0.3761901439469639  0.2562298581604949  0.5387393724559715
  0.6373456875258015  0.7497431295182722  0.2051235059004668
  0.3584176910576105  0.2530372184608112  0.4453859391682897
  0.6912845938387520  0.7502344818389233  0.2977903405103177
  0.3150494695349337  0.2510879928234715  0.3516973707589841
  0.6722652549304726  0.7515826838022903  0.3933469450504106
  0.3251940946914260  0.2499991896307847  0.2561239267414166
  0.6365347010461093  0.7539999690484223  0.4884523306969371
  0.6393886902293104  0.7572667721411293  0.5822559644093843
  0.6270175134682390  0.7611044220340588  0.6758904708105717
  0.1203179571074031  0.2617518467706361  0.6780671169034278
  0.1387666237404801  0.2578493615542925  0.5853882580642846
  0.1365432620390976  0.2545970697945279  0.4919183781188963
  0.8266753130402407  0.7498923705297216  0.2504388747706159
  0.1718827733936479  0.2518791312483941  0.3987525311844990
  0.8150667120828388  0.7508066284967114  0.3454645260361815
  0.1920108513431984  0.2504263304067678  0.3041508241750392
  0.8581199560238844  0.7525776782103080  0.4411282714250291
  0.1312619609687289  0.2497429805540676  0.2072427875569076
  0.8763359387176450  0.7557000877859252  0.5352772617983987
  0.9077670938524491  0.7589436419743620  0.6293698694769674
  0.7413899734545382  0.2600822284544364  0.6518832049180503
  0.7336241755463391  0.2565202093681904  0.5581150943934929
  0.7259408919702537  0.2532695151337379  0.4643550831518723
  0.2863940900423785  0.7501509631372443  0.2803106385069540
  0.7179032037387572  0.2512119279629204  0.3692083935775798
  0.2788416659053965  0.7514358516550530  0.3754432045228526
  0.7240590848789097  0.2500493945797828  0.2739362905695018
  0.2783899470432942  0.7537146404020945  0.4691421179612263
  0.2861033473071402  0.7569872447664139  0.5627052572417739
  0.2912500672618563  0.7607296663201524  0.6556943531171981
  0.7928109642760006  0.2580928716023863  0.6051747928313276
  0.7816122124273761  0.2549036712304442  0.5113647536245551
  0.2137401298849255  0.7498040453904409  0.2322667941884760
  0.7862210951170070  0.2520502914171061  0.4169585336417398
  0.2208384519325293  0.7506858274037427  0.3280838521380574
  0.7846904668400256  0.2505217584858457  0.3214987584587448
  0.2302771288738228  0.7523499703323751  0.4223876010108256
  0.7695570026522276  0.2498169401362134  0.2267856170434754
  0.2306421972853130  0.7554044727542149  0.5158293102011129
  0.2429414945784742  0.7586052215200354  0.6091740126311294
  0.6193340245330887  0.7628304880245906  0.7201850165577142
  0.6214607085638590  0.7641435333396913  0.7653436562206011
  0.6566745781788867  0.7651422600847582  0.8122632361720648
  0.6622001027292441  0.7662088696770226  0.8569456465965573
  0.6283202166494846  0.7668185501691056  0.9018928658317407
  0.7920598606331879  0.2620504402024650  0.6981811089945751
  0.7952033120390922  0.2635189236794417  0.7423088408601615
  0.8034250076108833  0.2645369475060235  0.7886887327813312
  0.8176577394610192  0.2657067823957675  0.8345784688178526
  0.8425030170953889  0.2667514736432395  0.8797840921279061
  0.1220885322616425  0.2632839019126365  0.7220769956378774
  0.1338210996593219  0.2643928056577778  0.7679186495764512
  0.1504253260106907  0.2655048532675721  0.8145376367471542
  0.1565754728192559  0.2665896630479025  0.8589391515778928
  0.1486844827176554  0.2642075448255383  0.9016555143957774
  0.2921039750227479  0.7625587637038862  0.7000063248203574
  0.2886411238573956  0.7638977572718488  0.7443076504926509
  0.3165070475593552  0.7648151491538471  0.7913590025875337
  0.3224790645285722  0.7660055711428555  0.8369840283089189
  0.3448156439704420  0.7668429844185312  0.8803772630887039
  0.4679453043285804  0.2644442724337210  0.7783721398281003
 
  0.00000000E+00  0.00000000E+00  0.00000000E+00
  0.00000000E+00  0.00000000E+00  0.00000000E+00
  0.00000000E+00  0.00000000E+00  0.00000000E+00
  0.00000000E+00  0.00000000E+00  0.00000000E+00
  0.00000000E+00  0.00000000E+00  0.00000000E+00
  0.00000000E+00  0.00000000E+00  0.00000000E+00
  0.00000000E+00  0.00000000E+00  0.00000000E+00
  0.00000000E+00  0.00000000E+00  0.00000000E+00
  0.00000000E+00  0.00000000E+00  0.00000000E+00
  0.00000000E+00  0.00000000E+00  0.00000000E+00
  0.00000000E+00  0.00000000E+00  0.00000000E+00
  0.00000000E+00  0.00000000E+00  0.00000000E+00
  0.00000000E+00  0.00000000E+00  0.00000000E+00
  0.00000000E+00  0.00000000E+00  0.00000000E+00
  0.00000000E+00  0.00000000E+00  0.00000000E+00
  0.00000000E+00  0.00000000E+00  0.00000000E+00
  0.00000000E+00  0.00000000E+00  0.00000000E+00
  0.00000000E+00  0.00000000E+00  0.00000000E+00
  0.00000000E+00  0.00000000E+00  0.00000000E+00
  0.00000000E+00  0.00000000E+00  0.00000000E+00
  0.00000000E+00  0.00000000E+00  0.00000000E+00
  0.00000000E+00  0.00000000E+00  0.00000000E+00
  0.00000000E+00  0.00000000E+00  0.00000000E+00
  0.00000000E+00  0.00000000E+00  0.00000000E+00
  0.00000000E+00  0.00000000E+00  0.00000000E+00
  0.00000000E+00  0.00000000E+00  0.00000000E+00
  0.00000000E+00  0.00000000E+00  0.00000000E+00
  0.00000000E+00  0.00000000E+00  0.00000000E+00
  0.00000000E+00  0.00000000E+00  0.00000000E+00
  0.00000000E+00  0.00000000E+00  0.00000000E+00
  0.00000000E+00  0.00000000E+00  0.00000000E+00
  0.00000000E+00  0.00000000E+00  0.00000000E+00
  0.00000000E+00  0.00000000E+00  0.00000000E+00
  0.00000000E+00  0.00000000E+00  0.00000000E+00
  0.00000000E+00  0.00000000E+00  0.00000000E+00
  0.00000000E+00  0.00000000E+00  0.00000000E+00
  0.00000000E+00  0.00000000E+00  0.00000000E+00
  0.00000000E+00  0.00000000E+00  0.00000000E+00
  0.00000000E+00  0.00000000E+00  0.00000000E+00
  0.00000000E+00  0.00000000E+00  0.00000000E+00
  0.00000000E+00  0.00000000E+00  0.00000000E+00
  0.00000000E+00  0.00000000E+00  0.00000000E+00
  0.00000000E+00  0.00000000E+00  0.00000000E+00
  0.00000000E+00  0.00000000E+00  0.00000000E+00
  0.00000000E+00  0.00000000E+00  0.00000000E+00
  0.00000000E+00  0.00000000E+00  0.00000000E+00
  0.00000000E+00  0.00000000E+00  0.00000000E+00
  0.00000000E+00  0.00000000E+00  0.00000000E+00
  0.00000000E+00  0.00000000E+00  0.00000000E+00
  0.00000000E+00  0.00000000E+00  0.00000000E+00
  0.00000000E+00  0.00000000E+00  0.00000000E+00
  0.00000000E+00  0.00000000E+00  0.00000000E+00
  0.00000000E+00  0.00000000E+00  0.00000000E+00
  0.00000000E+00  0.00000000E+00  0.00000000E+00
  0.00000000E+00  0.00000000E+00  0.00000000E+00
  0.00000000E+00  0.00000000E+00  0.00000000E+00
  0.00000000E+00  0.00000000E+00  0.00000000E+00
  0.00000000E+00  0.00000000E+00  0.00000000E+00
  0.00000000E+00  0.00000000E+00  0.00000000E+00
  0.00000000E+00  0.00000000E+00  0.00000000E+00
  0.00000000E+00  0.00000000E+00  0.00000000E+00
  0.00000000E+00  0.00000000E+00  0.00000000E+00
  0.00000000E+00  0.00000000E+00  0.00000000E+00
  0.00000000E+00  0.00000000E+00  0.00000000E+00
  0.00000000E+00  0.00000000E+00  0.00000000E+00
  0.00000000E+00  0.00000000E+00  0.00000000E+00
  0.00000000E+00  0.00000000E+00  0.00000000E+00
  0.00000000E+00  0.00000000E+00  0.00000000E+00
  0.00000000E+00  0.00000000E+00  0.00000000E+00
  0.00000000E+00  0.00000000E+00  0.00000000E+00
  0.00000000E+00  0.00000000E+00  0.00000000E+00
  0.00000000E+00  0.00000000E+00  0.00000000E+00
  0.00000000E+00  0.00000000E+00  0.00000000E+00
  0.00000000E+00  0.00000000E+00  0.00000000E+00
  0.00000000E+00  0.00000000E+00  0.00000000E+00
  0.00000000E+00  0.00000000E+00  0.00000000E+00
  0.00000000E+00  0.00000000E+00  0.00000000E+00
  0.00000000E+00  0.00000000E+00  0.00000000E+00
  0.00000000E+00  0.00000000E+00  0.00000000E+00
  0.00000000E+00  0.00000000E+00  0.00000000E+00
  0.00000000E+00  0.00000000E+00  0.00000000E+00
  0.00000000E+00  0.00000000E+00  0.00000000E+00
  0.00000000E+00  0.00000000E+00  0.00000000E+00
  0.00000000E+00  0.00000000E+00  0.00000000E+00
  0.00000000E+00  0.00000000E+00  0.00000000E+00
  0.00000000E+00  0.00000000E+00  0.00000000E+00
  0.00000000E+00  0.00000000E+00  0.00000000E+00
  0.00000000E+00  0.00000000E+00  0.00000000E+00
  0.00000000E+00  0.00000000E+00  0.00000000E+00
  0.00000000E+00  0.00000000E+00  0.00000000E+00
  0.00000000E+00  0.00000000E+00  0.00000000E+00
  0.00000000E+00  0.00000000E+00  0.00000000E+00
  0.00000000E+00  0.00000000E+00  0.00000000E+00
