Li Mn30 O62  (P1) ~ CONTCAR (VASP)      
   1.00000000000000     
     4.5329999900000004    0.0000000000000000    0.0000000000000000
     0.0000000000000000    2.8659999400000000    0.0000000000000000
     0.0000000000000000    0.0000000000000000  100.0000000000000000
   Mn   O    Li
    30    62     1
Direct
  0.0765625593427539  0.2587542993332259  0.6196395261507901
  0.0581331048718655  0.2555499766497051  0.5260902288551395
  0.9482913471220423  0.7497807303799617  0.2161818268886175
  0.0490094131181912  0.2524652276242599  0.4323001495472933
  0.9779822690552725  0.7504806675658688  0.3119875948465605
  0.0279386731587014  0.2507419519376761  0.3375659460164251
  0.9688882413660472  0.7519614058507695  0.4070342819433228
  0.0311114651327593  0.2498537848900686  0.2420694582566881
  0.9541915837883147  0.7547726753540187  0.5010795630473520
  0.9607682567782443  0.7580013813097183  0.5946593433263483
  0.4565596969211748  0.2609040160557892  0.6662771294225368
  0.4599306448403988  0.2571391040816509  0.5729253702602856
  0.4540435733616210  0.2538539257626399  0.4793032694973401
  0.5329166075279691  0.7500249420920418  0.2643038843159559
  0.4682851121551533  0.2515098958033027  0.3850380039354266
  0.5275900043748128  0.7511560831740477  0.3595905399736067
  0.4779445044475504  0.2501932671667227  0.2898803568918375
  0.5490951036717995  0.7531567519311018  0.4541788285637187
  0.5592376475086916  0.7563967648728659  0.5478580471800122
  0.5772168226858329  0.7599104426968171  0.6412636329207210
  0.9544425649633800  0.7619132196381947  0.6880761544410402
  0.9552611989877788  0.7633977902466880  0.7319520380762297
  0.9691413008312973  0.7644594206921114  0.7783476562300796
  0.9905931162328959  0.7656407901393719  0.8249932129559145
  0.0040213704831640  0.7666378053736923  0.8695294023155028
  0.4566944288466586  0.2627048059361597  0.7099885394373152
  0.4566658117696893  0.2639974339080716  0.7538900575901158
  0.4839249453366652  0.2650276611199952  0.8028574462545802
  0.4896050842584811  0.2661397795593550  0.8472295846655370
  0.4809502999242421  0.2669972527982764  0.8916528350776975
  0.4074057733109726  0.2596761436604214  0.6316280193510931
  0.3761901439469659  0.2562298581604954  0.5387393724559749
  0.6373456875257982  0.7497431295182749  0.2051235059004642
  0.3584176910576109  0.2530372184608100  0.4453859391682914
  0.6912845938387545  0.7502344818389267  0.2977903405103148
  0.3150494695349303  0.2510879928234688  0.3516973707589853
  0.6722652549304696  0.7515826838022875  0.3933469450504113
  0.3251940946914268  0.2499991896307852  0.2561239267414158
  0.6365347010461081  0.7539999690484210  0.4884523306969357
  0.6393886902293123  0.7572667721411269  0.5822559644093848
  0.6270175134682406  0.7611044220340605  0.6758904708105741
  0.1203179571073998  0.2617518467706370  0.6780671169034296
  0.1387666237404796  0.2578493615542909  0.5853882580642871
  0.1365432620390967  0.2545970697945255  0.4919183781188937
  0.8266753130402429  0.7498923705297206  0.2504388747706133
  0.1718827733936503  0.2518791312483967  0.3987525311845002
  0.8150667120828416  0.7508066284967103  0.3454645260361849
  0.1920108513431976  0.2504263304067688  0.3041508241750395
  0.8581199560238818  0.7525776782103085  0.4411282714250280
  0.1312619609687305  0.2497429805540706  0.2072427875569109
  0.8763359387176461  0.7557000877859257  0.5352772617983970
  0.9077670938524476  0.7589436419743645  0.6293698694769695
  0.7413899734545403  0.2600822284544334  0.6518832049180492
  0.7336241755463360  0.2565202093681891  0.5581150943934930
  0.7259408919702558  0.2532695151337384  0.4643550831518700
  0.2863940900423751  0.7501509631372423  0.2803106385069513
  0.7179032037387539  0.2512119279629226  0.3692083935775810
  0.2788416659053969  0.7514358516550511  0.3754432045228535
  0.7240590848789064  0.2500493945797801  0.2739362905695028
  0.2783899470432968  0.7537146404020922  0.4691421179612250
  0.2861033473071375  0.7569872447664164  0.5627052572417772
  0.2912500672618580  0.7607296663201518  0.6556943531171969
  0.7928109642759983  0.2580928716023838  0.6051747928313255
  0.7816122124273760  0.2549036712304468  0.5113647536245565
  0.2137401298849224  0.7498040453904380  0.2322667941884794
  0.7862210951170102  0.2520502914171053  0.4169585336417381
  0.2208384519325298  0.7506858274037457  0.3280838521380578
  0.7846904668400229  0.2505217584858459  0.3214987584587428
  0.2302771288738240  0.7523499703323728  0.4223876010108277
  0.7695570026522291  0.2498169401362134  0.2267856170434747
  0.2306421972853103  0.7554044727542170  0.5158293102011134
  0.2429414945784728  0.7586052215200360  0.6091740126311266
  0.6193340245330891  0.7628304880245912  0.7201850165577163
  0.6214607085638596  0.7641435333396881  0.7653436562206025
  0.6566745781788835  0.7651422600847554  0.8122632361720669
  0.6622001027292443  0.7662088696770231  0.8569456465965603
  0.6283202166494858  0.7668185501691076  0.9018928658317426
  0.7920598606331875  0.2620504402024678  0.6981811089945756
  0.7952033120390942  0.2635189236794409  0.7423088408601598
  0.8034250076108863  0.2645369475060207  0.7886887327813327
  0.8176577394610195  0.2657067823957658  0.8345784688178561
  0.8425030170953921  0.2667514736432409  0.8797840921279027
  0.1220885322616418  0.2632839019126336  0.7220769956378768
  0.1338210996593234  0.2643928056577775  0.7679186495764528
  0.1504253260106939  0.2655048532675748  0.8145376367471558
  0.1565754728192582  0.2665896630479038  0.8589391515778960
  0.1486844827176557  0.2642075448255361  0.9016555143957796
  0.2921039750227469  0.7625587637038848  0.7000063248203600
  0.2886411238573980  0.7638977572718456  0.7443076504926512
  0.3165070475593531  0.7648151491538471  0.7913590025875330
  0.3224790645285697  0.7660055711428539  0.8369840283089206
  0.3448156439704400  0.7668429844185296  0.8803772630887051
  0.4679453043285786  0.2644442724337229  0.7783721398281037
 
  0.00000000E+00  0.00000000E+00  0.00000000E+00
  0.00000000E+00  0.00000000E+00  0.00000000E+00
  0.00000000E+00  0.00000000E+00  0.00000000E+00
  0.00000000E+00  0.00000000E+00  0.00000000E+00
  0.00000000E+00  0.00000000E+00  0.00000000E+00
  0.00000000E+00  0.00000000E+00  0.00000000E+00
  0.00000000E+00  0.00000000E+00  0.00000000E+00
  0.00000000E+00  0.00000000E+00  0.00000000E+00
  0.00000000E+00  0.00000000E+00  0.00000000E+00
  0.00000000E+00  0.00000000E+00  0.00000000E+00
  0.00000000E+00  0.00000000E+00  0.00000000E+00
  0.00000000E+00  0.00000000E+00  0.00000000E+00
  0.00000000E+00  0.00000000E+00  0.00000000E+00
  0.00000000E+00  0.00000000E+00  0.00000000E+00
  0.00000000E+00  0.00000000E+00  0.00000000E+00
  0.00000000E+00  0.00000000E+00  0.00000000E+00
  0.00000000E+00  0.00000000E+00  0.00000000E+00
  0.00000000E+00  0.00000000E+00  0.00000000E+00
  0.00000000E+00  0.00000000E+00  0.00000000E+00
  0.00000000E+00  0.00000000E+00  0.00000000E+00
  0.00000000E+00  0.00000000E+00  0.00000000E+00
  0.00000000E+00  0.00000000E+00  0.00000000E+00
  0.00000000E+00  0.00000000E+00  0.00000000E+00
  0.00000000E+00  0.00000000E+00  0.00000000E+00
  0.00000000E+00  0.00000000E+00  0.00000000E+00
  0.00000000E+00  0.00000000E+00  0.00000000E+00
  0.00000000E+00  0.00000000E+00  0.00000000E+00
  0.00000000E+00  0.00000000E+00  0.00000000E+00
  0.00000000E+00  0.00000000E+00  0.00000000E+00
  0.00000000E+00  0.00000000E+00  0.00000000E+00
  0.00000000E+00  0.00000000E+00  0.00000000E+00
  0.00000000E+00  0.00000000E+00  0.00000000E+00
  0.00000000E+00  0.00000000E+00  0.00000000E+00
  0.00000000E+00  0.00000000E+00  0.00000000E+00
  0.00000000E+00  0.00000000E+00  0.00000000E+00
  0.00000000E+00  0.00000000E+00  0.00000000E+00
  0.00000000E+00  0.00000000E+00  0.00000000E+00
  0.00000000E+00  0.00000000E+00  0.00000000E+00
  0.00000000E+00  0.00000000E+00  0.00000000E+00
  0.00000000E+00  0.00000000E+00  0.00000000E+00
  0.00000000E+00  0.00000000E+00  0.00000000E+00
  0.00000000E+00  0.00000000E+00  0.00000000E+00
  0.00000000E+00  0.00000000E+00  0.00000000E+00
  0.00000000E+00  0.00000000E+00  0.00000000E+00
  0.00000000E+00  0.00000000E+00  0.00000000E+00
  0.00000000E+00  0.00000000E+00  0.00000000E+00
  0.00000000E+00  0.00000000E+00  0.00000000E+00
  0.00000000E+00  0.00000000E+00  0.00000000E+00
  0.00000000E+00  0.00000000E+00  0.00000000E+00
  0.00000000E+00  0.00000000E+00  0.00000000E+00
  0.00000000E+00  0.00000000E+00  0.00000000E+00
  0.00000000E+00  0.00000000E+00  0.00000000E+00
  0.00000000E+00  0.00000000E+00  0.00000000E+00
  0.00000000E+00  0.00000000E+00  0.00000000E+00
  0.00000000E+00  0.00000000E+00  0.00000000E+00
  0.00000000E+00  0.00000000E+00  0.00000000E+00
  0.00000000E+00  0.00000000E+00  0.00000000E+00
  0.00000000E+00  0.00000000E+00  0.00000000E+00
  0.00000000E+00  0.00000000E+00  0.00000000E+00
  0.00000000E+00  0.00000000E+00  0.00000000E+00
  0.00000000E+00  0.00000000E+00  0.00000000E+00
  0.00000000E+00  0.00000000E+00  0.00000000E+00
  0.00000000E+00  0.00000000E+00  0.00000000E+00
  0.00000000E+00  0.00000000E+00  0.00000000E+00
  0.00000000E+00  0.00000000E+00  0.00000000E+00
  0.00000000E+00  0.00000000E+00  0.00000000E+00
  0.00000000E+00  0.00000000E+00  0.00000000E+00
  0.00000000E+00  0.00000000E+00  0.00000000E+00
  0.00000000E+00  0.00000000E+00  0.00000000E+00
  0.00000000E+00  0.00000000E+00  0.00000000E+00
  0.00000000E+00  0.00000000E+00  0.00000000E+00
  0.00000000E+00  0.00000000E+00  0.00000000E+00
  0.00000000E+00  0.00000000E+00  0.00000000E+00
  0.00000000E+00  0.00000000E+00  0.00000000E+00
  0.00000000E+00  0.00000000E+00  0.00000000E+00
  0.00000000E+00  0.00000000E+00  0.00000000E+00
  0.00000000E+00  0.00000000E+00  0.00000000E+00
  0.00000000E+00  0.00000000E+00  0.00000000E+00
  0.00000000E+00  0.00000000E+00  0.00000000E+00
  0.00000000E+00  0.00000000E+00  0.00000000E+00
  0.00000000E+00  0.00000000E+00  0.00000000E+00
  0.00000000E+00  0.00000000E+00  0.00000000E+00
  0.00000000E+00  0.00000000E+00  0.00000000E+00
  0.00000000E+00  0.00000000E+00  0.00000000E+00
  0.00000000E+00  0.00000000E+00  0.00000000E+00
  0.00000000E+00  0.00000000E+00  0.00000000E+00
  0.00000000E+00  0.00000000E+00  0.00000000E+00
  0.00000000E+00  0.00000000E+00  0.00000000E+00
  0.00000000E+00  0.00000000E+00  0.00000000E+00
  0.00000000E+00  0.00000000E+00  0.00000000E+00
  0.00000000E+00  0.00000000E+00  0.00000000E+00
  0.00000000E+00  0.00000000E+00  0.00000000E+00
  0.00000000E+00  0.00000000E+00  0.00000000E+00
