(Mn O2)2  (P4_2/mnm) ~  (Pearson #311740)_1 (VASP)
    1.0
            4.42000000 0.00000000 0.00000000 
            0.00000000 4.42000000 0.00000000 
            0.00000000 0.00000000 2.87000000 
  4 2
Direct
        0.30478000 0.30478000 0.00000000
        0.80478000 0.19522000 0.50000000
        0.19522000 0.80478000 0.50000000
        0.69522000 0.69522000 0.00000000
        0.00000000 0.00000000 0.00000000
        0.50000000 0.50000000 0.50000000

