(Mn O2)12  (P1) ~ POSCAR_5_P1 1 1 0  surface (#1) (VASP)
    1.0
            2.84111000 0.00000000 0.00000000 
            0.00000000 6.19192000 0.00000000 
            0.00000000 0.00000000 28.57576000 
H O Mn
1 24 12
Selective dynamics
Direct
        0.10000000 0.10000000 0.80000000  T T T
        0.00000000 0.50000000 0.24070903  F F F
        0.00000000 0.50000000 0.45739338  F F F
        0.00000000 0.50000000 0.67407773  T T T
        0.50000000 0.30337010 0.17497347  F F F
        0.50000000 0.69662990 0.17497347  F F F
        0.50000000 0.30337010 0.39165782  F F F
        0.50000000 0.69662990 0.39165782  F F F
        0.50000000 0.30337010 0.60834218  T T T
        0.50000000 0.69662990 0.60834218  T T T
        0.00000000 0.50000000 0.32592227  F F F
        0.00000000 0.50000000 0.54260662  T T T
        0.00000000 0.50000000 0.75929097  T T T
        0.00000000 0.00000000 0.34905120  F F F
        0.00000000 0.00000000 0.56573555  T T T
        0.00000000 0.00000000 0.78241990  T T T
        0.50000000 0.80337010 0.28331565  F F F
        0.50000000 0.19662990 0.28331565  F F F
        0.50000000 0.80337010 0.50000000  T T T
        0.50000000 0.19662990 0.50000000  T T T
        0.50000000 0.80337010 0.71668435  T T T
        0.50000000 0.19662990 0.71668435  T T T
        0.00000000 0.00000000 0.21758010  F F F
        0.00000000 0.00000000 0.43426445  F F F
        0.00000000 0.00000000 0.65094880  T T T
        0.50000000 0.50000000 0.28331565  F F F
        0.50000000 0.50000000 0.50000000  T T T
        0.50000000 0.50000000 0.71668435  T T T
        0.00000000 0.50000000 0.17497347  F F F
        0.00000000 0.50000000 0.39165782  F F F
        0.00000000 0.50000000 0.60834218  T T T
        0.50000000 0.00000000 0.17497347  F F F
        0.50000000 0.00000000 0.39165782  F F F
        0.50000000 0.00000000 0.60834218  T T T
        0.00000000 0.00000000 0.28331565  F F F
        0.00000000 0.00000000 0.50000000  T T T
        0.00000000 0.00000000 0.71668435  T T T

