Mn12 O26 H  (P1) ~ CONTCAR_2 (VASP)
    1.0
            18.54459953 0.00000000 0.00000000 
            0.00000000 4.45330000 0.00000000 
            0.00000000 0.00000000 9.32289982 
  12 26 1
Selective dynamics
Direct
        0.30801690 0.51300001 0.12030000  F F F
        0.69213474 0.01959116 0.36879477  T T T
        0.68708128 0.48171398 0.86941564  T T T
        0.30801690 0.98699999 0.62029999  F F F
        0.46160337 0.51300001 0.12030000  F F F
        0.53839660 0.01300000 0.37970001  F F F
        0.53839660 0.48699999 0.87970001  F F F
        0.46160337 0.98699999 0.62029999  F F F
        0.62222946 0.50957328 0.14420378  T T T
        0.38481012 0.01300000 0.37970001  F F F
        0.38481012 0.48699999 0.87970001  F F F
        0.62224978 0.99492723 0.63980556  T T T
        0.30801690 0.79339999 0.28420001  F F F
        0.69848067 0.30846575 0.23222406  T T T
        0.69813371 0.19844252 0.73275548  T T T
        0.30801690 0.70660001 0.78420001  F F F
        0.46160337 0.79339999 0.28420001  F F F
        0.53839660 0.29339999 0.21580000  F F F
        0.53839660 0.20660000 0.71579999  F F F
        0.46160337 0.70660001 0.78420001  F F F
        0.61513299 0.79681462 0.28841367  T T T
        0.38481012 0.29339999 0.21580000  F F F
        0.38481012 0.20660000 0.71579999  F F F
        0.61555028 0.70021868 0.78797722  T T T
        0.30801690 0.23109999 0.46439999  F F F
        0.70254231 0.67870349 0.03478529  T T T
        0.70229155 0.81908494 0.53751391  T T T
        0.30801690 0.26890001 0.96439999  F F F
        0.46160337 0.23109999 0.46439999  F F F
        0.53839660 0.73110002 0.03560000  F F F
        0.53839660 0.76889998 0.53560001  F F F
        0.46160337 0.26890001 0.96439999  F F F
        0.61547315 0.23198310 0.47330341  T T T
        0.38481012 0.73110002 0.03560000  F F F
        0.38481012 0.76889998 0.53560001  F F F
        0.61712593 0.26917893 0.97261941  T T T
        0.77920920 0.01959116 0.36879477  T T T
        0.82779211 0.10432820 0.47540368  T T T
        0.77920920 0.20195910 0.54453687  T T T

