Automatic mesh
0
Gamma
  10  3  2
  0.  0.  0.

