                                        
   1.00000000000000     
     0.0000000000000000    2.8944869791221488    0.0000000000000000
    10.0693571715191634    0.0000000000000000   -0.3256967835267707
     0.5026909792490331    0.0000000000000000  -15.1532143534057155
   Mn   O    Li
    12    24     7
Direct
  0.2500000000000000  0.1505923928029689  0.6586142472859501
  0.2500000000000000  0.1189490389641148  0.3218681451469719
  0.2500000000000000  0.1163509270168123  0.9897580336578630
  0.2500000000000000  0.6611335533381669  0.5122254898272439
  0.2500000000000000  0.6209293801657338  0.1758838626128734
  0.2500000000000000  0.6350014654419001  0.8432063767103474
  0.7500000000000000  0.8595815923288826  0.3391500224335582
  0.7500000000000000  0.8417216095108873  0.9922102614682986
  0.7500000000000000  0.8717696203967752  0.6708898246013256
  0.7500000000000000  0.3729884171231128  0.5070331833227326
  0.7500000000000000  0.3249804850475441  0.1532063052472340
  0.7500000000000000  0.3565530607446333  0.8418617078484281
  0.2500000000000000  0.3066667493811230  0.5802996735960370
  0.2500000000000000  0.2626650723460635  0.2330973188809102
  0.2500000000000000  0.2782500493755777  0.9101494204391385
  0.2500000000000000  0.8219436101870735  0.5961659826203906
  0.2500000000000000  0.7859418466463446  0.2768101243563794
  0.2500000000000000  0.7830147257780481  0.9194741412495772
  0.7500000000000000  0.7128739028806776  0.4272676644701925
  0.7500000000000000  0.6810801575699973  0.0998539100573538
  0.7500000000000000  0.6982788094084066  0.7671847485030497
  0.7500000000000000  0.1919304846856835  0.3819684704748523
  0.7500000000000000  0.1669440437029978  0.0664925098260877
  0.7500000000000000  0.2046285926567957  0.7307587814043232
  0.2500000000000000  0.4362385381515155  0.4277013634849084
  0.2500000000000000  0.4274930556234874  0.0989391114544335
  0.2500000000000000  0.4609864350146192  0.7786986701179544
  0.2500000000000000  0.9526608049076448  0.3973350390012784
  0.2500000000000000  0.9353323717569152  0.0519845474764429
  0.2500000000000000  0.9715505016351875  0.7292863099874813
  0.7500000000000000  0.5667181808381305  0.5710142434582074
  0.7500000000000000  0.5432472582308968  0.2514807762601869
  0.7500000000000000  0.5518488764673896  0.9078652795524698
  0.7500000000000000  0.0756505526804176  0.5912761778119491
  0.7500000000000000  0.0256223187975924  0.2598110057377864
  0.7500000000000000  0.0490974238727030  0.9248911941389999
  0.2500000000000000  0.9949512803718629  0.5192574634264957
  0.2500000000000000  0.0070785508057854  0.1615315147626138
  0.2500000000000000  0.5996787249974138  0.3443293343208794
  0.7500000000000000  0.0376635461812696  0.8060246236374815
  0.7500000000000000  0.3814384396646500  0.3319601089360695
  0.7500000000000000  0.5267734070326578  0.0280126990930668
  0.7500000000000000  0.5364520854695388  0.6945728839701820
 
  0.00000000E+00  0.00000000E+00  0.00000000E+00
  0.00000000E+00  0.00000000E+00  0.00000000E+00
  0.00000000E+00  0.00000000E+00  0.00000000E+00
  0.00000000E+00  0.00000000E+00  0.00000000E+00
  0.00000000E+00  0.00000000E+00  0.00000000E+00
  0.00000000E+00  0.00000000E+00  0.00000000E+00
  0.00000000E+00  0.00000000E+00  0.00000000E+00
  0.00000000E+00  0.00000000E+00  0.00000000E+00
  0.00000000E+00  0.00000000E+00  0.00000000E+00
  0.00000000E+00  0.00000000E+00  0.00000000E+00
  0.00000000E+00  0.00000000E+00  0.00000000E+00
  0.00000000E+00  0.00000000E+00  0.00000000E+00
  0.00000000E+00  0.00000000E+00  0.00000000E+00
  0.00000000E+00  0.00000000E+00  0.00000000E+00
  0.00000000E+00  0.00000000E+00  0.00000000E+00
  0.00000000E+00  0.00000000E+00  0.00000000E+00
  0.00000000E+00  0.00000000E+00  0.00000000E+00
  0.00000000E+00  0.00000000E+00  0.00000000E+00
  0.00000000E+00  0.00000000E+00  0.00000000E+00
  0.00000000E+00  0.00000000E+00  0.00000000E+00
  0.00000000E+00  0.00000000E+00  0.00000000E+00
  0.00000000E+00  0.00000000E+00  0.00000000E+00
  0.00000000E+00  0.00000000E+00  0.00000000E+00
  0.00000000E+00  0.00000000E+00  0.00000000E+00
  0.00000000E+00  0.00000000E+00  0.00000000E+00
  0.00000000E+00  0.00000000E+00  0.00000000E+00
  0.00000000E+00  0.00000000E+00  0.00000000E+00
  0.00000000E+00  0.00000000E+00  0.00000000E+00
  0.00000000E+00  0.00000000E+00  0.00000000E+00
  0.00000000E+00  0.00000000E+00  0.00000000E+00
  0.00000000E+00  0.00000000E+00  0.00000000E+00
  0.00000000E+00  0.00000000E+00  0.00000000E+00
  0.00000000E+00  0.00000000E+00  0.00000000E+00
  0.00000000E+00  0.00000000E+00  0.00000000E+00
  0.00000000E+00  0.00000000E+00  0.00000000E+00
  0.00000000E+00  0.00000000E+00  0.00000000E+00
  0.00000000E+00  0.00000000E+00  0.00000000E+00
  0.00000000E+00  0.00000000E+00  0.00000000E+00
  0.00000000E+00  0.00000000E+00  0.00000000E+00
  0.00000000E+00  0.00000000E+00  0.00000000E+00
  0.00000000E+00  0.00000000E+00  0.00000000E+00
  0.00000000E+00  0.00000000E+00  0.00000000E+00
  0.00000000E+00  0.00000000E+00  0.00000000E+00
