(Mn O2)12  (P1) ~ (Pearson #311740)_1 1 1 0  surface (#1) (VASP)
    1.0
            2.87000000 0.00000000 0.00000000 
            0.00000000 6.25082000 0.00000000 
            0.00000000 0.00000000 28.75246000 
  24 12
Selective dynamics
Direct
        0.00000000 0.50000000 0.34885832  T T T
        0.00000000 0.50000000 0.56625955  F F F
        0.00000000 0.50000000 0.78366077  F F F
        0.50000000 0.80478000 0.17389816  T T T
        0.50000000 0.19522000 0.17389816  T T T
        0.50000000 0.80478000 0.39129939  F F F
        0.50000000 0.19522000 0.39129939  F F F
        0.50000000 0.80478000 0.60870061  F F F
        0.50000000 0.19522000 0.60870061  F F F
        0.00000000 0.50000000 0.21633923  T T T
        0.00000000 0.50000000 0.43374045  F F F
        0.00000000 0.50000000 0.65114168  F F F
        0.00000000 0.00000000 0.24015771  T T T
        0.00000000 0.00000000 0.45755893  F F F
        0.00000000 0.00000000 0.67496016  F F F
        0.50000000 0.30478000 0.28259878  T T T
        0.50000000 0.69522000 0.28259878  T T T
        0.50000000 0.30478000 0.50000000  F F F
        0.50000000 0.69522000 0.50000000  F F F
        0.50000000 0.30478000 0.71740122  F F F
        0.50000000 0.69522000 0.71740122  F F F
        0.00000000 0.00000000 0.32503984  T T T
        0.00000000 0.00000000 0.54244107  F F F
        0.00000000 0.00000000 0.75984229  F F F
        0.00000000 0.50000000 0.28259878  T T T
        0.00000000 0.50000000 0.50000000  F F F
        0.00000000 0.50000000 0.71740122  F F F
        0.50000000 0.50000000 0.17389816  T T T
        0.50000000 0.50000000 0.39129939  F F F
        0.50000000 0.50000000 0.60870061  F F F
        0.00000000 0.00000000 0.17389816  T T T
        0.00000000 0.00000000 0.39129939  F F F
        0.00000000 0.00000000 0.60870061  F F F
        0.50000000 0.00000000 0.28259878  T T T
        0.50000000 0.00000000 0.50000000  F F F
        0.50000000 0.00000000 0.71740122  F F F

