(Mn O2)8  (I4/m) ~  (Pearson #1102438)_1 (VASP)
    1.0
            -5.15400000 -5.15400000 1.42700000 
            -5.15400000 5.15400000 -1.42700000 
            5.15400000 -5.15400000 -1.42700000 
  8 4
Direct
        -0.35820000 -0.15510000 -0.20310000
        -1.64180000 -0.84490000 -0.79690000
        -0.95200000 -0.79690000 -0.15510000
        -1.04800000 -0.20310000 -0.84490000
        -0.62390000 -0.16510000 -0.45880000
        -1.37610000 -0.83490000 -0.54120000
        -0.70630000 -0.54120000 -0.16510000
        -1.29370000 -0.45880000 -0.83490000
        -0.51300000 -0.34770000 -0.16530000
        -1.48700000 -0.65230000 -0.83470000
        -1.18240000 -0.83470000 -0.34770000
        -0.81760000 -0.16530000 -0.65230000

