NPAR=8
MAGMOM = 3 -3 3 -3 3 -3 3 -3 3 -3 3 -3 24*0 10*0
LAECHG=.FALSE.
PREC = Normal
ENCUT = 520.000
IBRION = -1
NSW = 0
NELMIN = 5
EDIFF = 1.0e-05
EDIFFG = -0.02
VOSKOWN = 1
NBLOCK = 1
NELM = 60
ALGO = Normal (blocked Davidson)
ISPIN = 2
LDAU = .TRUE.
LDAUTYPE = 2
LDAUL = 2 -1 -1
LDAUU = 3.8999999999999999 0 0
LDAUJ = 0 0 0
LMAXMIX = 4
ISTART = 1
ICHARG = 11
LORBIT = 11
LWAVE = .TRUE.
LCHARG = .TRUE.
ADDGRID = .FALSE.
ISMEAR = -5
SIGMA = 0.2
LREAL = .FALSE.
NWRITE = 1
