                                        
   1.00000000000000     
     0.0000000000000000    2.8718424211560940    0.0000000000000000
    10.4471984166386083    0.0000000000000000    0.2766977492464199
    -0.4107017035740340    0.0000000000000000  -15.4605708520107985
   Mn   O    Li
    12    24    10
Direct
  0.2500000000000000  0.1404642275119815  0.6494189591649877
  0.2500000000000000  0.1558244076313095  0.3144104267560100
  0.2500000000000000  0.1002088188034319  0.9844718777508485
  0.2500000000000000  0.6364355811859516  0.5181971367393594
  0.2500000000000000  0.6387032938637832  0.1843771028991471
  0.2500000000000000  0.6133432885838778  0.8552117828017232
  0.7500000000000000  0.8919501491747152  0.3312286301534519
  0.7500000000000000  0.8276894631997622  0.0160300605893658
  0.7500000000000000  0.8631041994392369  0.6668182306134586
  0.7500000000000000  0.3728357897770375  0.4994592858417465
  0.7500000000000000  0.3540641892800203  0.1538928166825910
  0.7500000000000000  0.3495737691454239  0.8212859698767231
  0.2500000000000000  0.2871897286290666  0.5536509604922611
  0.2500000000000000  0.3179941378736190  0.2327513315502389
  0.2500000000000000  0.2795411813462482  0.8877220564532112
  0.2500000000000000  0.7982989687469396  0.5918388769975534
  0.2500000000000000  0.7959171371035708  0.2775456849670562
  0.2500000000000000  0.7622984958661760  0.9379465261769188
  0.7500000000000000  0.7014743746065570  0.4496867282154468
  0.7500000000000000  0.6722888767263572  0.1025713251252494
  0.7500000000000000  0.6823216582686955  0.7905024011509829
  0.7500000000000000  0.2308613501263032  0.3878508952658845
  0.7500000000000000  0.1752672289922914  0.0544270707406908
  0.7500000000000000  0.1908813469398409  0.7282469617090722
  0.2500000000000000  0.4737683633527642  0.4441967326800024
  0.2500000000000000  0.4146763815021450  0.0811612537368766
  0.2500000000000000  0.4579124230433878  0.7728690104141095
  0.2500000000000000  0.9607547499900493  0.4081073571863023
  0.2500000000000000  0.9269648047432508  0.0691397102208212
  0.2500000000000000  0.9241324072339475  0.7416067543764101
  0.7500000000000000  0.5640621961374260  0.5814589432722703
  0.7500000000000000  0.5644256256240114  0.2519632941804253
  0.7500000000000000  0.5352142252868350  0.9180389164798912
  0.7500000000000000  0.0495287138411467  0.5853144748875618
  0.7500000000000000  0.0627736158759988  0.2571115056525375
  0.7500000000000000  0.0283950874913779  0.9108546163230633
  0.2500000000000000  0.1202533160591384  0.4805876731579657
  0.2500000000000000  0.0931073160062826  0.8170663174978996
  0.2500000000000000  0.6418418424077463  0.3492256333949095
  0.2500000000000000  0.5714822601350279  0.0225871231429968
  0.7500000000000000  0.8946684989532003  0.4968714486290363
  0.7500000000000000  0.0311869942961761  0.1384507742930355
  0.7500000000000000  0.8681569860981057  0.8397079941418181
  0.7500000000000000  0.4041566036358393  0.3204293490653051
  0.7500000000000000  0.3442316722467628  0.9907507212253340
  0.7500000000000000  0.5402781332171895  0.6996239629974625
 
  0.00000000E+00  0.00000000E+00  0.00000000E+00
  0.00000000E+00  0.00000000E+00  0.00000000E+00
  0.00000000E+00  0.00000000E+00  0.00000000E+00
  0.00000000E+00  0.00000000E+00  0.00000000E+00
  0.00000000E+00  0.00000000E+00  0.00000000E+00
  0.00000000E+00  0.00000000E+00  0.00000000E+00
  0.00000000E+00  0.00000000E+00  0.00000000E+00
  0.00000000E+00  0.00000000E+00  0.00000000E+00
  0.00000000E+00  0.00000000E+00  0.00000000E+00
  0.00000000E+00  0.00000000E+00  0.00000000E+00
  0.00000000E+00  0.00000000E+00  0.00000000E+00
  0.00000000E+00  0.00000000E+00  0.00000000E+00
  0.00000000E+00  0.00000000E+00  0.00000000E+00
  0.00000000E+00  0.00000000E+00  0.00000000E+00
  0.00000000E+00  0.00000000E+00  0.00000000E+00
  0.00000000E+00  0.00000000E+00  0.00000000E+00
  0.00000000E+00  0.00000000E+00  0.00000000E+00
  0.00000000E+00  0.00000000E+00  0.00000000E+00
  0.00000000E+00  0.00000000E+00  0.00000000E+00
  0.00000000E+00  0.00000000E+00  0.00000000E+00
  0.00000000E+00  0.00000000E+00  0.00000000E+00
  0.00000000E+00  0.00000000E+00  0.00000000E+00
  0.00000000E+00  0.00000000E+00  0.00000000E+00
  0.00000000E+00  0.00000000E+00  0.00000000E+00
  0.00000000E+00  0.00000000E+00  0.00000000E+00
  0.00000000E+00  0.00000000E+00  0.00000000E+00
  0.00000000E+00  0.00000000E+00  0.00000000E+00
  0.00000000E+00  0.00000000E+00  0.00000000E+00
  0.00000000E+00  0.00000000E+00  0.00000000E+00
  0.00000000E+00  0.00000000E+00  0.00000000E+00
  0.00000000E+00  0.00000000E+00  0.00000000E+00
  0.00000000E+00  0.00000000E+00  0.00000000E+00
  0.00000000E+00  0.00000000E+00  0.00000000E+00
  0.00000000E+00  0.00000000E+00  0.00000000E+00
  0.00000000E+00  0.00000000E+00  0.00000000E+00
  0.00000000E+00  0.00000000E+00  0.00000000E+00
  0.00000000E+00  0.00000000E+00  0.00000000E+00
  0.00000000E+00  0.00000000E+00  0.00000000E+00
  0.00000000E+00  0.00000000E+00  0.00000000E+00
  0.00000000E+00  0.00000000E+00  0.00000000E+00
  0.00000000E+00  0.00000000E+00  0.00000000E+00
  0.00000000E+00  0.00000000E+00  0.00000000E+00
  0.00000000E+00  0.00000000E+00  0.00000000E+00
  0.00000000E+00  0.00000000E+00  0.00000000E+00
  0.00000000E+00  0.00000000E+00  0.00000000E+00
  0.00000000E+00  0.00000000E+00  0.00000000E+00
