(Mn O2)2  (P4_2/mnm) ~  (Pearson #311740
   1.00000000000000     
     4.3783520477776223   -0.0000000000000000    0.0000000000000000
     0.0000000000000000    4.3783520477776223    0.0000000000000000
     0.0000000000000000    0.0000000000000000    2.8411139264470271
   O    Mn
     4     2
Direct
  0.3033700952654356  0.3033700952654356  0.0000000000000000
  0.8033700952654357  0.1966299047345644  0.5000000000000000
  0.1966299047345644  0.8033700952654357  0.5000000000000000
  0.6966299047345643  0.6966299047345643 -0.0000000000000000
  0.0000000000000000 -0.0000000000000000 -0.0000000000000000
  0.5000000000000000  0.5000000000000000  0.5000000000000000
 
  0.00000000E+00  0.00000000E+00  0.00000000E+00
  0.00000000E+00  0.00000000E+00  0.00000000E+00
  0.00000000E+00  0.00000000E+00  0.00000000E+00
  0.00000000E+00  0.00000000E+00  0.00000000E+00
  0.00000000E+00  0.00000000E+00  0.00000000E+00
  0.00000000E+00  0.00000000E+00  0.00000000E+00
