(Mn O2)8  (I4/m) ~  (Pearson #1102438)_1
   1.00000000000000     
    -4.8512583520470898   -4.8533951619822275    1.4206491055485537
    -4.8433320054774480    4.8455015927474516   -1.4206491055485537
     4.8433320054774480   -4.8455015927474516   -1.4206491055485537
   O    Mn
     8     4
Direct
  0.6386471446019198  0.8441288986895247  0.7945182459123951
  0.3613528553980804  0.1558711013104754  0.2054817540876050
  0.0477922361298710  0.2035933430450223  0.8441988930848487
  0.9522077638701291  0.7964066569549778  0.1558011069151513
  0.3784397831583429  0.8386857102913661  0.5397540728669773
  0.6215602168416571  0.1613142897086342  0.4602459271330230
  0.2924061867553759  0.4585903215432995  0.8338158652120695
  0.7075938132446241  0.5414096784567006  0.1661841347879307
  0.4860914626253047  0.6522145296913071  0.8338769329339903
  0.5139085373746953  0.3477854703086928  0.1661230670660096
  0.8188702307749929  0.1675685029516905  0.6513017278233022
  0.1811297692250071  0.8324314970483094  0.3486982721766976
 
  0.00000000E+00  0.00000000E+00  0.00000000E+00
  0.00000000E+00  0.00000000E+00  0.00000000E+00
  0.00000000E+00  0.00000000E+00  0.00000000E+00
  0.00000000E+00  0.00000000E+00  0.00000000E+00
  0.00000000E+00  0.00000000E+00  0.00000000E+00
  0.00000000E+00  0.00000000E+00  0.00000000E+00
  0.00000000E+00  0.00000000E+00  0.00000000E+00
  0.00000000E+00  0.00000000E+00  0.00000000E+00
  0.00000000E+00  0.00000000E+00  0.00000000E+00
  0.00000000E+00  0.00000000E+00  0.00000000E+00
  0.00000000E+00  0.00000000E+00  0.00000000E+00
  0.00000000E+00  0.00000000E+00  0.00000000E+00
