                                        
   1.00000000000000     
     0.0000000000000000    2.8857031039802803    0.0000000000000000
     0.1913193569352136    0.0000000000000000   10.1822676445330078
    10.0838354505632086    0.0000000000000000    0.1758977484246196
   Mn   O    Li
     8    16     5
Direct
  0.2500000000000000  0.0171736586868403  0.1411510555399435
  0.2500000000000000  0.5256599126227980  0.1227639520600314
  0.2500000000000000  0.2287758217168255  0.6348018734475372
  0.2500000000000000  0.7199016400174351  0.6189780577176620
  0.7500000000000000  0.4877695981282216  0.8493432643128683
  0.7500000000000000  0.0075681374654504  0.8608098843459637
  0.7500000000000000  0.2583829571402332  0.3592132023818453
  0.7500000000000000  0.7462305004415283  0.3496227548517328
  0.2500000000000000  0.1746730134073556  0.2714288897141692
  0.2500000000000000  0.6576326205685151  0.2626289965123216
  0.2500000000000000  0.1079629692491906  0.7833646916453780
  0.2500000000000000  0.6009604722882773  0.7767262160774734
  0.7500000000000000  0.3377803278869361  0.7004494092183592
  0.7500000000000000  0.8231187286392193  0.6879226842882011
  0.7500000000000000  0.4232083888617012  0.1940207470029260
  0.7500000000000000  0.8986524351007127  0.1970441897066318
  0.2500000000000000  0.3416910998867260  0.4669466771659950
  0.2500000000000000  0.8333441770387802  0.4559395436966376
  0.2500000000000000  0.4158121708322050  0.9604811246969762
  0.2500000000000000  0.8921501469040137  0.9306506002097247
  0.7500000000000000  0.1357116539915187  0.5527798016152109
  0.7500000000000000  0.6281946473272461  0.5376793103014379
  0.7500000000000000  0.1138631451237022  0.0481592576187262
  0.7500000000000000  0.6299170612064171  0.0369642167634398
  0.2500000000000000  0.2552107973174936  0.0675125918911117
  0.2500000000000000  0.7764234810089852  0.0942122978583599
  0.7500000000000000  0.7529411728471067  0.8727187327137915
  0.7500000000000000  0.4492370583735588  0.5365968501922417
  0.7500000000000000  0.9529483759210032  0.5343410664532749
 
  0.00000000E+00  0.00000000E+00  0.00000000E+00
  0.00000000E+00  0.00000000E+00  0.00000000E+00
  0.00000000E+00  0.00000000E+00  0.00000000E+00
  0.00000000E+00  0.00000000E+00  0.00000000E+00
  0.00000000E+00  0.00000000E+00  0.00000000E+00
  0.00000000E+00  0.00000000E+00  0.00000000E+00
  0.00000000E+00  0.00000000E+00  0.00000000E+00
  0.00000000E+00  0.00000000E+00  0.00000000E+00
  0.00000000E+00  0.00000000E+00  0.00000000E+00
  0.00000000E+00  0.00000000E+00  0.00000000E+00
  0.00000000E+00  0.00000000E+00  0.00000000E+00
  0.00000000E+00  0.00000000E+00  0.00000000E+00
  0.00000000E+00  0.00000000E+00  0.00000000E+00
  0.00000000E+00  0.00000000E+00  0.00000000E+00
  0.00000000E+00  0.00000000E+00  0.00000000E+00
  0.00000000E+00  0.00000000E+00  0.00000000E+00
  0.00000000E+00  0.00000000E+00  0.00000000E+00
  0.00000000E+00  0.00000000E+00  0.00000000E+00
  0.00000000E+00  0.00000000E+00  0.00000000E+00
  0.00000000E+00  0.00000000E+00  0.00000000E+00
  0.00000000E+00  0.00000000E+00  0.00000000E+00
  0.00000000E+00  0.00000000E+00  0.00000000E+00
  0.00000000E+00  0.00000000E+00  0.00000000E+00
  0.00000000E+00  0.00000000E+00  0.00000000E+00
  0.00000000E+00  0.00000000E+00  0.00000000E+00
  0.00000000E+00  0.00000000E+00  0.00000000E+00
  0.00000000E+00  0.00000000E+00  0.00000000E+00
  0.00000000E+00  0.00000000E+00  0.00000000E+00
  0.00000000E+00  0.00000000E+00  0.00000000E+00
