    NPAR = 8
  MAGMOM = 6*4 6*-4 24*0
  SYSTEM = (Mn O2)12  (P1) ~ (Pearson #1251171)_1 0 1 0  surface (#1) (VASP)
    PREC = Normal
   ENCUT = 367.693
  IBRION = 2
     NSW = 111
    ISIF = 2
  NELMIN = 2
 VOSKOWN = 1
  NBLOCK = 1
    NELM = 60
    ALGO = Normal (blocked Davidson)
   ISPIN = 2
    LDAU = .TRUE.
LDAUTYPE = 2
   LDAUL = 2 -1
   LDAUU = 3.9 0
   LDAUJ = 0 0
 LMAXMIX = 4
  INIWAV = 1
  ISTART = 0
  ICHARG = 2
   LWAVE = .FALSE.
  LCHARG = .FALSE.
 ADDGRID = .FALSE.
  ISMEAR = 1
   SIGMA = 0.2
   LREAL = .FALSE.
  NWRITE = 1
