(Mn O2)12  (P1) ~ (Pearson #1251171)_1 0 1 0  surface (#1) (VASP)
    1.0
            18.54460000 0.00000000 0.00000000 
            0.00000000 4.45330000 0.00000000 
            0.00000000 0.00000000 9.32290000 
  12 24
Selective dynamics
Direct
        0.30801689 0.51300000 0.12030000  F F F
        0.69198311 0.01300000 0.37970000  T T T
        0.69198311 0.48700000 0.87970000  T T T
        0.30801689 0.98700000 0.62030000  F F F
        0.46160338 0.51300000 0.12030000  F F F
        0.53839662 0.01300000 0.37970000  F F F
        0.53839662 0.48700000 0.87970000  F F F
        0.46160338 0.98700000 0.62030000  F F F
        0.61518987 0.51300000 0.12030000  T T T
        0.38481013 0.01300000 0.37970000  F F F
        0.38481013 0.48700000 0.87970000  F F F
        0.61518987 0.98700000 0.62030000  T T T
        0.30801689 0.79340000 0.28420000  F F F
        0.69198311 0.29340000 0.21580000  T T T
        0.69198311 0.20660000 0.71580000  T T T
        0.30801689 0.70660000 0.78420000  F F F
        0.46160338 0.79340000 0.28420000  F F F
        0.53839662 0.29340000 0.21580000  F F F
        0.53839662 0.20660000 0.71580000  F F F
        0.46160338 0.70660000 0.78420000  F F F
        0.61518987 0.79340000 0.28420000  T T T
        0.38481013 0.29340000 0.21580000  F F F
        0.38481013 0.20660000 0.71580000  F F F
        0.61518987 0.70660000 0.78420000  T T T
        0.30801689 0.23110000 0.46440000  F F F
        0.69198311 0.73110000 0.03560000  T T T
        0.69198311 0.76890000 0.53560000  T T T
        0.30801689 0.26890000 0.96440000  F F F
        0.46160338 0.23110000 0.46440000  F F F
        0.53839662 0.73110000 0.03560000  F F F
        0.53839662 0.76890000 0.53560000  F F F
        0.46160338 0.26890000 0.96440000  F F F
        0.61518987 0.23110000 0.46440000  T T T
        0.38481013 0.73110000 0.03560000  F F F
        0.38481013 0.76890000 0.53560000  F F F
        0.61518987 0.26890000 0.96440000  T T T

