(Mn O2)4  (P1) ~ POSCAR_1 (VASP)        
   1.00000000000000     
     5.7426646804897201    0.1200565268466235   -0.0317347098023033
    -2.9735415558420346    4.9141818850217440    0.0079848585846697
    -1.4807384037659570    0.7030155615814611    7.0272514749470449
   Mn   O 
     4     8
Direct
 -0.0000000000000000 -0.0000000000000000  0.0000000000000000
 -0.0000000000000000  0.5000000000000000  0.0000000000000000
  0.5000000000000000 -0.0000000000000000  0.0000000000000000
  0.5000000000000000  0.5000000000000000  0.0000000000000000
  0.1921390511029426  0.8132846647829745  0.1362995913242320
  0.8078609488970573  0.1867153352170256  0.8637004186757689
  0.1921390511029426  0.3132846047829695  0.1362995913242320
  0.8078609488970573  0.6867153952170305  0.8637004186757689
  0.6921390511029427  0.8132846647829745  0.1362995913242320
  0.3078609488970573  0.1867153352170256  0.8637004186757689
  0.6921390511029427  0.3132846047829695  0.1362995913242320
  0.3078609488970573  0.6867153952170305  0.8637004186757689
 
  0.00000000E+00  0.00000000E+00  0.00000000E+00
  0.00000000E+00  0.00000000E+00  0.00000000E+00
  0.00000000E+00  0.00000000E+00  0.00000000E+00
  0.00000000E+00  0.00000000E+00  0.00000000E+00
  0.00000000E+00  0.00000000E+00  0.00000000E+00
  0.00000000E+00  0.00000000E+00  0.00000000E+00
  0.00000000E+00  0.00000000E+00  0.00000000E+00
  0.00000000E+00  0.00000000E+00  0.00000000E+00
  0.00000000E+00  0.00000000E+00  0.00000000E+00
  0.00000000E+00  0.00000000E+00  0.00000000E+00
  0.00000000E+00  0.00000000E+00  0.00000000E+00
  0.00000000E+00  0.00000000E+00  0.00000000E+00
